17
Properties=species:S:1:pos:R:3:fragment_id:I:1 config_id=canonical_p3__mobley_1278715__cluster_3water__compressed molecule_id=mobley_1278715 smiles=ClC(Cl)(Cl)C(Cl)(Cl)Cl split=canonical_prospective_3 chemical_role=stratum_5 category=cluster_3water motif=compressed regime=compressed conformer_index=0 n_solute_atoms=8 n_waters=3 pbc="F F F"
Cl       1.65828827      -1.05104796      -1.06118825        0
C        0.77403282       0.11416762       0.01110054        0
Cl       1.47613833      -0.08179165       1.67184468        0
Cl       1.23379408       1.77712373      -0.54802146        0
C       -0.77403524      -0.11416478      -0.01109879        0
Cl      -1.65828620       1.05104186       1.06119809        0
Cl      -1.23378896      -1.77713074       0.54800808        0
Cl      -1.47614309       0.08180191      -1.67184289        0
O        3.38149548      -1.66572227      -1.97719612        1
H        2.66065708      -1.16571734      -2.36010461        1
H        3.11546214      -1.81370644      -1.06969473        1
O        5.44307824      -3.23225994      -3.04727069        2
H        4.58871065      -3.04362868      -3.43547954        2
H        5.43520658      -2.76570030      -2.21151236        2
O        7.81412874      -4.54046944      -4.15308442        3
H        7.00067995      -4.32085966      -4.60729191        3
H        7.67775425      -4.23602127      -3.25589706        3
17
Properties=species:S:1:pos:R:3:fragment_id:I:1 config_id=canonical_p3__mobley_1278715__cluster_3water__cooperative molecule_id=mobley_1278715 smiles=ClC(Cl)(Cl)C(Cl)(Cl)Cl split=canonical_prospective_3 chemical_role=stratum_5 category=cluster_3water motif=cooperative regime=cooperative conformer_index=0 n_solute_atoms=8 n_waters=3 pbc="F F F"
Cl       1.65828827      -1.05104796      -1.06118825        0
C        0.77403282       0.11416762       0.01110054        0
Cl       1.47613833      -0.08179165       1.67184468        0
Cl       1.23379408       1.77712373      -0.54802146        0
C       -0.77403524      -0.11416478      -0.01109879        0
Cl      -1.65828620       1.05104186       1.06119809        0
Cl      -1.23378896      -1.77713074       0.54800808        0
Cl      -1.47614309       0.08180191      -1.67184289        0
O        2.65634232      -0.03601156       3.66450389        1
H        2.37279464       0.70875688       3.13426571        1
H        2.34287460      -0.80393822       3.18673985        1
O        4.46304574       0.12757079       5.97299724        2
H        4.14468989       0.84576893       5.42612171        2
H        4.06034122      -0.65591351       5.59854663        2
O        5.95886881       0.08634168       8.48226142        3
H        5.64821958       0.85125105       7.99786226        3
H        5.66958368      -0.66203180       7.96026230        3
17
Properties=species:S:1:pos:R:3:fragment_id:I:1 config_id=canonical_p3__mobley_1278715__cluster_3water__equilibrium molecule_id=mobley_1278715 smiles=ClC(Cl)(Cl)C(Cl)(Cl)Cl split=canonical_prospective_3 chemical_role=stratum_5 category=cluster_3water motif=equilibrium regime=equilibrium conformer_index=0 n_solute_atoms=8 n_waters=3 pbc="F F F"
Cl       1.65828827      -1.05104796      -1.06118825        0
C        0.77403282       0.11416762       0.01110054        0
Cl       1.47613833      -0.08179165       1.67184468        0
Cl       1.23379408       1.77712373      -0.54802146        0
C       -0.77403524      -0.11416478      -0.01109879        0
Cl      -1.65828620       1.05104186       1.06119809        0
Cl      -1.23378896      -1.77713074       0.54800808        0
Cl      -1.47614309       0.08180191      -1.67184289        0
O        3.57096890       1.80764082       1.14392135        1
H        2.96290879       2.54625561       1.17462852        1
H        4.04881090       1.92415186       0.32274899        1
O        2.57328476       4.48292527      -1.02471228        2
H        1.91615158       5.00238157      -1.48793252        2
H        2.06488856       3.90463259      -0.45607997        2
O       -2.59261342      -3.32560214       1.68804891        3
H       -2.71176435      -3.89217028       2.45030572        3
H       -2.10493950      -3.86276231       1.06365725        3
17
Properties=species:S:1:pos:R:3:fragment_id:I:1 config_id=canonical_p3__mobley_1278715__cluster_3water__orientation molecule_id=mobley_1278715 smiles=ClC(Cl)(Cl)C(Cl)(Cl)Cl split=canonical_prospective_3 chemical_role=stratum_5 category=cluster_3water motif=orientation regime=orientation conformer_index=0 n_solute_atoms=8 n_waters=3 pbc="F F F"
Cl       1.65828827      -1.05104796      -1.06118825        0
C        0.77403282       0.11416762       0.01110054        0
Cl       1.47613833      -0.08179165       1.67184468        0
Cl       1.23379408       1.77712373      -0.54802146        0
C       -0.77403524      -0.11416478      -0.01109879        0
Cl      -1.65828620       1.05104186       1.06119809        0
Cl      -1.23378896      -1.77713074       0.54800808        0
Cl      -1.47614309       0.08180191      -1.67184289        0
O        3.57096890       1.80764082       1.14392135        1
H        2.65877775       1.59847543       1.34489147        1
H        3.61960471       2.76103838       1.21391769        1
O        2.57328476       4.48292527      -1.02471228        2
H        3.07922819       4.59332273      -0.21968714        2
H        2.43422526       5.37420406      -1.34489412        2
O       -2.59261342      -3.32560214       1.68804891        3
H       -2.58759107      -2.37838488       1.82583890        3
H       -2.08944525      -3.45381197       0.88392462        3
43
Properties=species:S:1:pos:R:3:fragment_id:I:1 config_id=canonical_p3__mobley_1352110__cluster_3water__compressed molecule_id=mobley_1352110 smiles=CCCCN(CC)C(=O)SCCC split=canonical_prospective_3 chemical_role=stratum_4 category=cluster_3water motif=compressed regime=compressed conformer_index=0 n_solute_atoms=34 n_waters=3 pbc="F F F"
C       -3.47758690      -2.41454589      -0.99742412        0
C       -2.93579805      -1.59082244       0.15984992        0
C       -1.99761799      -0.48818794      -0.32867279        0
C       -1.45820671       0.33931400       0.84024173        0
N       -0.54443690       1.39396431       0.38382449        0
C       -1.14542012       2.68227144       0.04379465        0
C       -1.23152740       3.60102294       1.25286910        0
C        0.83888021       1.27731460       0.25700191        0
O        1.56157160       2.20782998      -0.08415354        0
S        1.53295199      -0.30224869       0.60453832        0
C        3.28134466       0.04777803       0.24921567        0
C        4.16983866      -1.17830743       0.46308322        0
C        3.93217023      -2.29448688      -0.54537271        0
H       -4.14606911      -3.19721112      -0.62531982        0
H       -4.04309920      -1.78768658      -1.69425459        0
H       -2.66484828      -2.89643812      -1.55022610        0
H       -2.40358031      -2.25222074       0.85339091        0
H       -3.77437109      -1.14929268       0.71075942        0
H       -2.53119994       0.16571089      -1.02928479        0
H       -1.16752545      -0.93257630      -0.89039850        0
H       -2.28660611       0.81350885       1.38021584        0
H       -0.95678151      -0.30871201       1.56502001        0
H       -0.55125593       3.17205427      -0.73595886        0
H       -2.14273686       2.51074099      -0.37590605        0
H       -1.68049297       4.55842133       0.97129389        0
H       -1.84293376       3.15677745       2.04479784        0
H       -0.23837868       3.79786738       1.66968607        0
H        3.38069960       0.40319926      -0.78210909        0
H        3.61760885       0.84718590       0.91831109        0
H        4.04972932      -1.56789832       1.48121377        0
H        5.21595609      -0.85977387       0.37493101        0
H        2.93465881      -2.73109645      -0.44118973        0
H        4.04337285      -1.92669695      -1.57041267        0
H        4.66169041      -3.09675923      -0.39412490        0
O        6.79832669      -2.46086866       0.88610095        1
H        5.94868197      -2.73954882       1.22767534        1
H        6.60573031      -1.67363072       0.37679269        1
O        9.54956158      -3.18015489       1.37819205        2
H        8.80237290      -3.28434561       1.96733143        2
H        9.17969079      -2.78391876       0.58925328        2
O       12.16396069      -3.98626439       1.68117265        3
H       11.38581236      -4.35094780       2.10274474        3
H       11.82916734      -3.27842264       1.13062265        3
43
Properties=species:S:1:pos:R:3:fragment_id:I:1 config_id=canonical_p3__mobley_1352110__cluster_3water__cooperative molecule_id=mobley_1352110 smiles=CCCCN(CC)C(=O)SCCC split=canonical_prospective_3 chemical_role=stratum_4 category=cluster_3water motif=cooperative regime=cooperative conformer_index=0 n_solute_atoms=34 n_waters=3 pbc="F F F"
C       -3.47758690      -2.41454589      -0.99742412        0
C       -2.93579805      -1.59082244       0.15984992        0
C       -1.99761799      -0.48818794      -0.32867279        0
C       -1.45820671       0.33931400       0.84024173        0
N       -0.54443690       1.39396431       0.38382449        0
C       -1.14542012       2.68227144       0.04379465        0
C       -1.23152740       3.60102294       1.25286910        0
C        0.83888021       1.27731460       0.25700191        0
O        1.56157160       2.20782998      -0.08415354        0
S        1.53295199      -0.30224869       0.60453832        0
C        3.28134466       0.04777803       0.24921567        0
C        4.16983866      -1.17830743       0.46308322        0
C        3.93217023      -2.29448688      -0.54537271        0
H       -4.14606911      -3.19721112      -0.62531982        0
H       -4.04309920      -1.78768658      -1.69425459        0
H       -2.66484828      -2.89643812      -1.55022610        0
H       -2.40358031      -2.25222074       0.85339091        0
H       -3.77437109      -1.14929268       0.71075942        0
H       -2.53119994       0.16571089      -1.02928479        0
H       -1.16752545      -0.93257630      -0.89039850        0
H       -2.28660611       0.81350885       1.38021584        0
H       -0.95678151      -0.30871201       1.56502001        0
H       -0.55125593       3.17205427      -0.73595886        0
H       -2.14273686       2.51074099      -0.37590605        0
H       -1.68049297       4.55842133       0.97129389        0
H       -1.84293376       3.15677745       2.04479784        0
H       -0.23837868       3.79786738       1.66968607        0
H        3.38069960       0.40319926      -0.78210909        0
H        3.61760885       0.84718590       0.91831109        0
H        4.04972932      -1.56789832       1.48121377        0
H        5.21595609      -0.85977387       0.37493101        0
H        2.93465881      -2.73109645      -0.44118973        0
H        4.04337285      -1.92669695      -1.57041267        0
H        4.66169041      -3.09675923      -0.39412490        0
O       -6.73307597      -3.64049972       0.07352687        1
H       -6.57708610      -2.69612866       0.08142017        1
H       -5.85813335      -4.02839876       0.08906962        1
O       -9.16801907      -5.23707088      -0.04610150        2
H       -9.09318950      -4.28291469      -0.03132520        2
H       -8.26377230      -5.54925517      -0.01277594        2
O      -11.51254226      -6.65832171      -0.08845004        3
H      -11.40393582      -5.70732064      -0.08266798        3
H      -10.61923979      -7.00196524      -0.07613488        3
43
Properties=species:S:1:pos:R:3:fragment_id:I:1 config_id=canonical_p3__mobley_1352110__cluster_3water__equilibrium molecule_id=mobley_1352110 smiles=CCCCN(CC)C(=O)SCCC split=canonical_prospective_3 chemical_role=stratum_4 category=cluster_3water motif=equilibrium regime=equilibrium conformer_index=0 n_solute_atoms=34 n_waters=3 pbc="F F F"
C       -3.47758690      -2.41454589      -0.99742412        0
C       -2.93579805      -1.59082244       0.15984992        0
C       -1.99761799      -0.48818794      -0.32867279        0
C       -1.45820671       0.33931400       0.84024173        0
N       -0.54443690       1.39396431       0.38382449        0
C       -1.14542012       2.68227144       0.04379465        0
C       -1.23152740       3.60102294       1.25286910        0
C        0.83888021       1.27731460       0.25700191        0
O        1.56157160       2.20782998      -0.08415354        0
S        1.53295199      -0.30224869       0.60453832        0
C        3.28134466       0.04777803       0.24921567        0
C        4.16983866      -1.17830743       0.46308322        0
C        3.93217023      -2.29448688      -0.54537271        0
H       -4.14606911      -3.19721112      -0.62531982        0
H       -4.04309920      -1.78768658      -1.69425459        0
H       -2.66484828      -2.89643812      -1.55022610        0
H       -2.40358031      -2.25222074       0.85339091        0
H       -3.77437109      -1.14929268       0.71075942        0
H       -2.53119994       0.16571089      -1.02928479        0
H       -1.16752545      -0.93257630      -0.89039850        0
H       -2.28660611       0.81350885       1.38021584        0
H       -0.95678151      -0.30871201       1.56502001        0
H       -0.55125593       3.17205427      -0.73595886        0
H       -2.14273686       2.51074099      -0.37590605        0
H       -1.68049297       4.55842133       0.97129389        0
H       -1.84293376       3.15677745       2.04479784        0
H       -0.23837868       3.79786738       1.66968607        0
H        3.38069960       0.40319926      -0.78210909        0
H        3.61760885       0.84718590       0.91831109        0
H        4.04972932      -1.56789832       1.48121377        0
H        5.21595609      -0.85977387       0.37493101        0
H        2.93465881      -2.73109645      -0.44118973        0
H        4.04337285      -1.92669695      -1.57041267        0
H        4.66169041      -3.09675923      -0.39412490        0
O        6.49140210      -1.36298988       2.48725527        1
H        5.68027528      -1.78454800       2.77114587        1
H        6.45332510      -0.48669864       2.87052494        1
O       -2.71080330       6.33306313       2.49902509        2
H       -2.31221995       6.53556638       3.34540301        2
H       -3.23752597       7.10476992       2.29102581        2
O        7.65255144      -4.69757758      -0.93830696        3
H        6.82530008      -4.21747961      -0.97562954        3
H        7.96027634      -4.57599188      -0.04011202        3
43
Properties=species:S:1:pos:R:3:fragment_id:I:1 config_id=canonical_p3__mobley_1352110__cluster_3water__orientation molecule_id=mobley_1352110 smiles=CCCCN(CC)C(=O)SCCC split=canonical_prospective_3 chemical_role=stratum_4 category=cluster_3water motif=orientation regime=orientation conformer_index=0 n_solute_atoms=34 n_waters=3 pbc="F F F"
C       -3.47758690      -2.41454589      -0.99742412        0
C       -2.93579805      -1.59082244       0.15984992        0
C       -1.99761799      -0.48818794      -0.32867279        0
C       -1.45820671       0.33931400       0.84024173        0
N       -0.54443690       1.39396431       0.38382449        0
C       -1.14542012       2.68227144       0.04379465        0
C       -1.23152740       3.60102294       1.25286910        0
C        0.83888021       1.27731460       0.25700191        0
O        1.56157160       2.20782998      -0.08415354        0
S        1.53295199      -0.30224869       0.60453832        0
C        3.28134466       0.04777803       0.24921567        0
C        4.16983866      -1.17830743       0.46308322        0
C        3.93217023      -2.29448688      -0.54537271        0
H       -4.14606911      -3.19721112      -0.62531982        0
H       -4.04309920      -1.78768658      -1.69425459        0
H       -2.66484828      -2.89643812      -1.55022610        0
H       -2.40358031      -2.25222074       0.85339091        0
H       -3.77437109      -1.14929268       0.71075942        0
H       -2.53119994       0.16571089      -1.02928479        0
H       -1.16752545      -0.93257630      -0.89039850        0
H       -2.28660611       0.81350885       1.38021584        0
H       -0.95678151      -0.30871201       1.56502001        0
H       -0.55125593       3.17205427      -0.73595886        0
H       -2.14273686       2.51074099      -0.37590605        0
H       -1.68049297       4.55842133       0.97129389        0
H       -1.84293376       3.15677745       2.04479784        0
H       -0.23837868       3.79786738       1.66968607        0
H        3.38069960       0.40319926      -0.78210909        0
H        3.61760885       0.84718590       0.91831109        0
H        4.04972932      -1.56789832       1.48121377        0
H        5.21595609      -0.85977387       0.37493101        0
H        2.93465881      -2.73109645      -0.44118973        0
H        4.04337285      -1.92669695      -1.57041267        0
H        4.66169041      -3.09675923      -0.39412490        0
O        6.49140210      -1.36298988       2.48725527        1
H        6.51736751      -1.40350290       1.53126556        1
H        6.25656299      -0.45586600       2.68272572        1
O       -2.71080330       6.33306313       2.49902509        2
H       -2.93183970       6.56526080       3.40094471        2
H       -3.23744520       6.92570391       1.96268839        2
O        7.65255144      -4.69757758      -0.93830696        3
H        8.38167767      -4.24663054      -0.51256813        3
H        7.52461051      -5.49100034      -0.41836149        3
21
Properties=species:S:1:pos:R:3:fragment_id:I:1 config_id=canonical_p3__mobley_1723043__cluster_3water__compressed molecule_id=mobley_1723043 smiles=FC1(F)C(F)(F)C(F)(F)C1(F)F split=canonical_prospective_3 chemical_role=stratum_5 category=cluster_3water motif=compressed regime=compressed conformer_index=0 n_solute_atoms=12 n_waters=3 pbc="F F F"
F       -2.05123611       0.02591647      -0.97165541        0
C       -1.07607814       0.08885424      -0.03157970        0
F       -1.70467178       0.32924574       1.14751147        0
C       -0.05262032      -1.07863484      -0.02478997        0
F        0.17077362      -1.67435418      -1.22411777        0
F       -0.29372773      -2.08226693       0.85454272        0
C        0.99900593      -0.02253177       0.41026331        0
F        1.11536392       0.17787064       1.74797518        0
F        2.25992088      -0.20549662      -0.05369099        0
C        0.12969258       1.01231190      -0.35389355        0
F        0.08504115       2.26184624       0.17080345        0
F        0.41853599       1.16723910      -1.67136873        0
O        0.32581012       4.29076295      -0.00031783        1
H        1.04228473       3.67356539      -0.14851749        1
H       -0.46023260       3.74500669       0.02245911        1
O        0.69808582       6.95667949       0.15483060        2
H        1.36562621       6.27578332       0.07115220        2
H       -0.13124196       6.47899431       0.17108301        2
O        1.07747331       9.59654165       0.57449599        3
H        1.73528773       8.93857706       0.34956348        3
H        0.25499757       9.10875632       0.61728581        3
21
Properties=species:S:1:pos:R:3:fragment_id:I:1 config_id=canonical_p3__mobley_1723043__cluster_3water__cooperative molecule_id=mobley_1723043 smiles=FC1(F)C(F)(F)C(F)(F)C1(F)F split=canonical_prospective_3 chemical_role=stratum_5 category=cluster_3water motif=cooperative regime=cooperative conformer_index=0 n_solute_atoms=12 n_waters=3 pbc="F F F"
F       -2.05123611       0.02591647      -0.97165541        0
C       -1.07607814       0.08885424      -0.03157970        0
F       -1.70467178       0.32924574       1.14751147        0
C       -0.05262032      -1.07863484      -0.02478997        0
F        0.17077362      -1.67435418      -1.22411777        0
F       -0.29372773      -2.08226693       0.85454272        0
C        0.99900593      -0.02253177       0.41026331        0
F        1.11536392       0.17787064       1.74797518        0
F        2.25992088      -0.20549662      -0.05369099        0
C        0.12969258       1.01231190      -0.35389355        0
F        0.08504115       2.26184624       0.17080345        0
F        0.41853599       1.16723910      -1.67136873        0
O        3.30390507      -1.73277282       2.44484383        1
H        2.55208739      -1.20974120       2.72312415        1
H        3.28803511      -1.68617826       1.48891029        1
O        5.49509588      -2.83817934       3.81948538        2
H        4.74126381      -2.37980534       4.19078356        2
H        5.33617496      -2.83608998       2.87557245        2
O        7.47074100      -3.96118602       5.32958831        3
H        6.73496913      -3.42781974       5.63024096        3
H        7.35806559      -4.01227339       4.38041701        3
21
Properties=species:S:1:pos:R:3:fragment_id:I:1 config_id=canonical_p3__mobley_1723043__cluster_3water__equilibrium molecule_id=mobley_1723043 smiles=FC1(F)C(F)(F)C(F)(F)C1(F)F split=canonical_prospective_3 chemical_role=stratum_5 category=cluster_3water motif=equilibrium regime=equilibrium conformer_index=0 n_solute_atoms=12 n_waters=3 pbc="F F F"
F       -2.05123611       0.02591647      -0.97165541        0
C       -1.07607814       0.08885424      -0.03157970        0
F       -1.70467178       0.32924574       1.14751147        0
C       -0.05262032      -1.07863484      -0.02478997        0
F        0.17077362      -1.67435418      -1.22411777        0
F       -0.29372773      -2.08226693       0.85454272        0
C        0.99900593      -0.02253177       0.41026331        0
F        1.11536392       0.17787064       1.74797518        0
F        2.25992088      -0.20549662      -0.05369099        0
C        0.12969258       1.01231190      -0.35389355        0
F        0.08504115       2.26184624       0.17080345        0
F        0.41853599       1.16723910      -1.67136873        0
O        4.74049675      -1.41985963       1.36064616        1
H        5.16368852      -0.56658240       1.26546985        1
H        3.80885519      -1.21747683       1.44618587        1
O        0.97428445       2.54467077      -3.89540514        2
H        1.55976219       1.80983622      -3.71246841        2
H        0.66071601       2.82176216      -3.03451778        2
O       -3.95032227       0.91048913       3.19248647        3
H       -3.99657609       1.60622166       2.53670552        3
H       -3.03098080       0.64396355       3.19517362        3
21
Properties=species:S:1:pos:R:3:fragment_id:I:1 config_id=canonical_p3__mobley_1723043__cluster_3water__orientation molecule_id=mobley_1723043 smiles=FC1(F)C(F)(F)C(F)(F)C1(F)F split=canonical_prospective_3 chemical_role=stratum_5 category=cluster_3water motif=orientation regime=orientation conformer_index=0 n_solute_atoms=12 n_waters=3 pbc="F F F"
F       -2.05123611       0.02591647      -0.97165541        0
C       -1.07607814       0.08885424      -0.03157970        0
F       -1.70467178       0.32924574       1.14751147        0
C       -0.05262032      -1.07863484      -0.02478997        0
F        0.17077362      -1.67435418      -1.22411777        0
F       -0.29372773      -2.08226693       0.85454272        0
C        0.99900593      -0.02253177       0.41026331        0
F        1.11536392       0.17787064       1.74797518        0
F        2.25992088      -0.20549662      -0.05369099        0
C        0.12969258       1.01231190      -0.35389355        0
F        0.08504115       2.26184624       0.17080345        0
F        0.41853599       1.16723910      -1.67136873        0
O        4.74049675      -1.41985963       1.36064616        1
H        5.22017545      -2.12287350       0.92256889        1
H        5.10353230      -0.61502287       0.99095058        1
O        0.97428445       2.54467077      -3.89540514        2
H        0.46006398       2.87593850      -4.63165974        2
H        0.61988906       1.67122757      -3.72887365        2
O       -3.95032227       0.91048913       3.19248647        3
H       -3.20687826       1.46152592       2.94777991        3
H       -3.99827579       0.25096897       2.50041317        3
31
Properties=species:S:1:pos:R:3:fragment_id:I:1 config_id=canonical_p3__mobley_172879__cluster_3water__compressed molecule_id=mobley_172879 smiles=c1ccc2c(c1)Oc1ccccc1O2 split=canonical_prospective_3 chemical_role=stratum_2 category=cluster_3water motif=compressed regime=compressed conformer_index=0 n_solute_atoms=22 n_waters=3 pbc="F F F"
C       -3.62177016       0.37550898      -0.02782402        0
C       -3.49152857      -0.98627141      -0.30902163        0
C       -2.22394317      -1.56537680      -0.39296600        0
C       -1.08986967      -0.77889722      -0.19505443        0
C       -1.21989152       0.58057574       0.08567662        0
C       -2.48470283       1.16107729       0.17001417        0
O       -0.13331278       1.39388510       0.28784829        0
C        1.08987085       0.77890001       0.19503862        0
C        2.22394476       1.56537749       0.39296023        0
C        3.49153205       0.98627646       0.30900404        0
C        3.62177118      -0.37550860       0.02782615        0
C        2.48470150      -1.16108043      -0.16999311        0
C        1.21989062      -0.58057560      -0.08567614        0
O        0.13331296      -1.39388604      -0.28784472        0
H       -4.60958854       0.82492383       0.03724667        0
H       -4.37798956      -1.59662633      -0.46279365        0
H       -2.12085132      -2.62437083      -0.61154463        0
H       -2.58420311       2.22037657       0.38877812        0
H        2.12084404       2.62436556       0.61156812        0
H        4.37799572       1.59662739       0.46278390        0
H        4.60958852      -0.82492843      -0.03723343        0
H        2.58419901      -2.22037270      -0.38879318        0
O       -5.61029008       3.00526704       0.66479601        1
H       -4.72918762       3.36367637       0.55787055        1
H       -5.49145155       2.05686269       0.61343038        1
O       -7.97742542       4.26184206       1.16965891        2
H       -7.12010143       4.66280394       1.02663096        2
H       -7.81766076       3.32096674       1.09576209        2
O      -10.42856535       5.22030080       1.53213117        3
H       -9.61493351       5.71464041       1.43281641        3
H      -10.16110169       4.30322505       1.47157455        3
31
Properties=species:S:1:pos:R:3:fragment_id:I:1 config_id=canonical_p3__mobley_172879__cluster_3water__cooperative molecule_id=mobley_172879 smiles=c1ccc2c(c1)Oc1ccccc1O2 split=canonical_prospective_3 chemical_role=stratum_2 category=cluster_3water motif=cooperative regime=cooperative conformer_index=0 n_solute_atoms=22 n_waters=3 pbc="F F F"
C       -3.62177016       0.37550898      -0.02782402        0
C       -3.49152857      -0.98627141      -0.30902163        0
C       -2.22394317      -1.56537680      -0.39296600        0
C       -1.08986967      -0.77889722      -0.19505443        0
C       -1.21989152       0.58057574       0.08567662        0
C       -2.48470283       1.16107729       0.17001417        0
O       -0.13331278       1.39388510       0.28784829        0
C        1.08987085       0.77890001       0.19503862        0
C        2.22394476       1.56537749       0.39296023        0
C        3.49153205       0.98627646       0.30900404        0
C        3.62177118      -0.37550860       0.02782615        0
C        2.48470150      -1.16108043      -0.16999311        0
C        1.21989062      -0.58057560      -0.08567614        0
O        0.13331296      -1.39388604      -0.28784472        0
H       -4.60958854       0.82492383       0.03724667        0
H       -4.37798956      -1.59662633      -0.46279365        0
H       -2.12085132      -2.62437083      -0.61154463        0
H       -2.58420311       2.22037657       0.38877812        0
H        2.12084404       2.62436556       0.61156812        0
H        4.37799572       1.59662739       0.46278390        0
H        4.60958852      -0.82492843      -0.03723343        0
H        2.58419901      -2.22037270      -0.38879318        0
O        7.11696398      -0.48293122       0.81642027        1
H        6.52302072       0.26434044       0.88747182        1
H        6.56838824      -1.19508825       0.48759074        1
O        9.78109364      -0.51393330       1.11365240        2
H        9.19010936       0.23355060       1.20441163        2
H        9.20761660      -1.24786654       0.89297633        2
O       12.66292190      -0.87839188       1.40214338        3
H       11.99000667      -0.97308707       2.07627227        3
H       12.17902350      -0.63739697       0.61220943        3
31
Properties=species:S:1:pos:R:3:fragment_id:I:1 config_id=canonical_p3__mobley_172879__cluster_3water__equilibrium molecule_id=mobley_172879 smiles=c1ccc2c(c1)Oc1ccccc1O2 split=canonical_prospective_3 chemical_role=stratum_2 category=cluster_3water motif=equilibrium regime=equilibrium conformer_index=0 n_solute_atoms=22 n_waters=3 pbc="F F F"
C       -3.62177016       0.37550898      -0.02782402        0
C       -3.49152857      -0.98627141      -0.30902163        0
C       -2.22394317      -1.56537680      -0.39296600        0
C       -1.08986967      -0.77889722      -0.19505443        0
C       -1.21989152       0.58057574       0.08567662        0
C       -2.48470283       1.16107729       0.17001417        0
O       -0.13331278       1.39388510       0.28784829        0
C        1.08987085       0.77890001       0.19503862        0
C        2.22394476       1.56537749       0.39296023        0
C        3.49153205       0.98627646       0.30900404        0
C        3.62177118      -0.37550860       0.02782615        0
C        2.48470150      -1.16108043      -0.16999311        0
C        1.21989062      -0.58057560      -0.08567614        0
O        0.13331296      -1.39388604      -0.28784472        0
H       -4.60958854       0.82492383       0.03724667        0
H       -4.37798956      -1.59662633      -0.46279365        0
H       -2.12085132      -2.62437083      -0.61154463        0
H       -2.58420311       2.22037657       0.38877812        0
H        2.12084404       2.62436556       0.61156812        0
H        4.37799572       1.59662739       0.46278390        0
H        4.60958852      -0.82492843      -0.03723343        0
H        2.58419901      -2.22037270      -0.38879318        0
O        6.09922536      -2.56234838      -0.93273377        1
H        6.46091023      -3.28412114      -0.41847704        1
H        6.82951388      -2.26463926      -1.47520938        1
O        5.63109175       3.48320753       1.75388835        2
H        5.60035355       4.40828360       1.50991855        2
H        5.69652792       3.48890765       2.70883204        2
O       -5.77650565      -4.33525898      -0.42003658        3
H       -5.02775496      -4.91798104      -0.29339046        3
H       -5.66866779      -3.65747028       0.24720049        3
31
Properties=species:S:1:pos:R:3:fragment_id:I:1 config_id=canonical_p3__mobley_172879__cluster_3water__orientation molecule_id=mobley_172879 smiles=c1ccc2c(c1)Oc1ccccc1O2 split=canonical_prospective_3 chemical_role=stratum_2 category=cluster_3water motif=orientation regime=orientation conformer_index=0 n_solute_atoms=22 n_waters=3 pbc="F F F"
C       -3.62177016       0.37550898      -0.02782402        0
C       -3.49152857      -0.98627141      -0.30902163        0
C       -2.22394317      -1.56537680      -0.39296600        0
C       -1.08986967      -0.77889722      -0.19505443        0
C       -1.21989152       0.58057574       0.08567662        0
C       -2.48470283       1.16107729       0.17001417        0
O       -0.13331278       1.39388510       0.28784829        0
C        1.08987085       0.77890001       0.19503862        0
C        2.22394476       1.56537749       0.39296023        0
C        3.49153205       0.98627646       0.30900404        0
C        3.62177118      -0.37550860       0.02782615        0
C        2.48470150      -1.16108043      -0.16999311        0
C        1.21989062      -0.58057560      -0.08567614        0
O        0.13331296      -1.39388604      -0.28784472        0
H       -4.60958854       0.82492383       0.03724667        0
H       -4.37798956      -1.59662633      -0.46279365        0
H       -2.12085132      -2.62437083      -0.61154463        0
H       -2.58420311       2.22037657       0.38877812        0
H        2.12084404       2.62436556       0.61156812        0
H        4.37799572       1.59662739       0.46278390        0
H        4.60958852      -0.82492843      -0.03723343        0
H        2.58419901      -2.22037270      -0.38879318        0
O        6.09922536      -2.56234838      -0.93273377        1
H        5.70166866      -3.42226910      -1.06954339        1
H        5.41542223      -2.04718321      -0.50465670        1
O        5.63109175       3.48320753       1.75388835        2
H        4.90725623       3.41064022       1.13177263        2
H        5.20981266       3.68185419       2.59012711        2
O       -5.77650565      -4.33525898      -0.42003658        3
H       -5.83341227      -5.29048052      -0.44338784        3
H       -5.75765879      -4.07339526      -1.34052777        3
31
Properties=species:S:1:pos:R:3:fragment_id:I:1 config_id=canonical_p3__mobley_2261979__cluster_3water__compressed molecule_id=mobley_2261979 smiles=c1cc2c3c(cccc3c1)CC2 split=canonical_prospective_3 chemical_role=stratum_1 category=cluster_3water motif=compressed regime=compressed conformer_index=0 n_solute_atoms=22 n_waters=3 pbc="F F F"
C        1.43958104      -2.33957226       0.22873347        0
C        0.04263961      -2.34259792       0.37818631        0
C       -0.64210340      -1.14521150       0.25559115        0
C        0.05891107       0.00280684      -0.00671858        0
C       -0.78766383       1.07715098      -0.09196570        0
C       -0.26354739       2.33208243      -0.35290255        0
C        1.12510111       2.46166447      -0.52218338        0
C        1.97809545       1.34337973      -0.43044238        0
C        1.44387287       0.06873723      -0.16519383        0
C        2.14123475      -1.14727850      -0.04088548        0
C       -2.21239872       0.66258803       0.12770004        0
C       -2.11212212      -0.86845354       0.36711695        0
H        1.99012932      -3.27296324       0.32252996        0
H       -0.48454785      -3.26850671       0.58566190        0
H       -0.90837787       3.20218926      -0.42630697        0
H        1.55033354       3.44150467      -0.72764044        0
H        3.04843302       1.47156843      -0.56556393        0
H        3.22166231      -1.17308701      -0.15188538        0
H       -2.63900139       1.16555583       1.00161005        0
H       -2.82609127       0.87896025      -0.75278367        0
H       -2.48854999      -1.13196725       1.36087416        0
H       -2.67559027      -1.41855021      -0.39353170        0
O        3.07487907      -5.03539755       0.51481393        1
H        2.12772051      -4.91471857       0.58233492        1
H        3.41679817      -4.15832579       0.34141182        1
O        4.37366525      -7.33752876       0.71686801        2
H        3.42926991      -7.19097090       0.77044110        2
H        4.74397292      -6.46650177       0.57398325        2
O        5.89593367      -9.49932176       1.04138781        3
H        4.94683226      -9.43020825       1.14464315        3
H        6.17541894      -8.61750475       0.79538255        3
31
Properties=species:S:1:pos:R:3:fragment_id:I:1 config_id=canonical_p3__mobley_2261979__cluster_3water__cooperative molecule_id=mobley_2261979 smiles=c1cc2c3c(cccc3c1)CC2 split=canonical_prospective_3 chemical_role=stratum_1 category=cluster_3water motif=cooperative regime=cooperative conformer_index=0 n_solute_atoms=22 n_waters=3 pbc="F F F"
C        1.43958104      -2.33957226       0.22873347        0
C        0.04263961      -2.34259792       0.37818631        0
C       -0.64210340      -1.14521150       0.25559115        0
C        0.05891107       0.00280684      -0.00671858        0
C       -0.78766383       1.07715098      -0.09196570        0
C       -0.26354739       2.33208243      -0.35290255        0
C        1.12510111       2.46166447      -0.52218338        0
C        1.97809545       1.34337973      -0.43044238        0
C        1.44387287       0.06873723      -0.16519383        0
C        2.14123475      -1.14727850      -0.04088548        0
C       -2.21239872       0.66258803       0.12770004        0
C       -2.11212212      -0.86845354       0.36711695        0
H        1.99012932      -3.27296324       0.32252996        0
H       -0.48454785      -3.26850671       0.58566190        0
H       -0.90837787       3.20218926      -0.42630697        0
H        1.55033354       3.44150467      -0.72764044        0
H        3.04843302       1.47156843      -0.56556393        0
H        3.22166231      -1.17308701      -0.15188538        0
H       -2.63900139       1.16555583       1.00161005        0
H       -2.82609127       0.87896025      -0.75278367        0
H       -2.48854999      -1.13196725       1.36087416        0
H       -2.67559027      -1.41855021      -0.39353170        0
O        5.36439229       0.57488713      -0.59044323        1
H        4.88302966       0.37596647       0.21264608        1
H        4.69030159       0.62463557      -1.26820326        1
O        8.20445693       0.95523337      -0.83468913        2
H        7.72596912       0.56947823      -0.10088110        2
H        7.52574507       1.18601438      -1.46897784        2
O       11.10397430       1.10847178      -1.17743127        3
H       10.56261588       1.58355321      -0.54698656        3
H       10.48326918       0.57197573      -1.67051238        3
31
Properties=species:S:1:pos:R:3:fragment_id:I:1 config_id=canonical_p3__mobley_2261979__cluster_3water__equilibrium molecule_id=mobley_2261979 smiles=c1cc2c3c(cccc3c1)CC2 split=canonical_prospective_3 chemical_role=stratum_1 category=cluster_3water motif=equilibrium regime=equilibrium conformer_index=0 n_solute_atoms=22 n_waters=3 pbc="F F F"
C        1.43958104      -2.33957226       0.22873347        0
C        0.04263961      -2.34259792       0.37818631        0
C       -0.64210340      -1.14521150       0.25559115        0
C        0.05891107       0.00280684      -0.00671858        0
C       -0.78766383       1.07715098      -0.09196570        0
C       -0.26354739       2.33208243      -0.35290255        0
C        1.12510111       2.46166447      -0.52218338        0
C        1.97809545       1.34337973      -0.43044238        0
C        1.44387287       0.06873723      -0.16519383        0
C        2.14123475      -1.14727850      -0.04088548        0
C       -2.21239872       0.66258803       0.12770004        0
C       -2.11212212      -0.86845354       0.36711695        0
H        1.99012932      -3.27296324       0.32252996        0
H       -0.48454785      -3.26850671       0.58566190        0
H       -0.90837787       3.20218926      -0.42630697        0
H        1.55033354       3.44150467      -0.72764044        0
H        3.04843302       1.47156843      -0.56556393        0
H        3.22166231      -1.17308701      -0.15188538        0
H       -2.63900139       1.16555583       1.00161005        0
H       -2.82609127       0.87896025      -0.75278367        0
H       -2.48854999      -1.13196725       1.36087416        0
H       -2.67559027      -1.41855021      -0.39353170        0
O        0.69483846       5.81092666      -1.51802973        1
H        0.36604800       6.53421267      -0.98418891        1
H        1.31890475       6.21967445      -2.11777831        1
O       -0.74188025      -5.84335933       0.95265639        2
H        0.11772915      -5.50911662       1.20875274        2
H       -1.27039248      -5.05891409       0.80584925        2
O       -2.47388297       3.72548285       0.58817655        3
H       -2.78668760       4.40834871       1.18153928        3
H       -2.70073380       4.04425479      -0.28541087        3
31
Properties=species:S:1:pos:R:3:fragment_id:I:1 config_id=canonical_p3__mobley_2261979__cluster_3water__orientation molecule_id=mobley_2261979 smiles=c1cc2c3c(cccc3c1)CC2 split=canonical_prospective_3 chemical_role=stratum_1 category=cluster_3water motif=orientation regime=orientation conformer_index=0 n_solute_atoms=22 n_waters=3 pbc="F F F"
C        1.43958104      -2.33957226       0.22873347        0
C        0.04263961      -2.34259792       0.37818631        0
C       -0.64210340      -1.14521150       0.25559115        0
C        0.05891107       0.00280684      -0.00671858        0
C       -0.78766383       1.07715098      -0.09196570        0
C       -0.26354739       2.33208243      -0.35290255        0
C        1.12510111       2.46166447      -0.52218338        0
C        1.97809545       1.34337973      -0.43044238        0
C        1.44387287       0.06873723      -0.16519383        0
C        2.14123475      -1.14727850      -0.04088548        0
C       -2.21239872       0.66258803       0.12770004        0
C       -2.11212212      -0.86845354       0.36711695        0
H        1.99012932      -3.27296324       0.32252996        0
H       -0.48454785      -3.26850671       0.58566190        0
H       -0.90837787       3.20218926      -0.42630697        0
H        1.55033354       3.44150467      -0.72764044        0
H        3.04843302       1.47156843      -0.56556393        0
H        3.22166231      -1.17308701      -0.15188538        0
H       -2.63900139       1.16555583       1.00161005        0
H       -2.82609127       0.87896025      -0.75278367        0
H       -2.48854999      -1.13196725       1.36087416        0
H       -2.67559027      -1.41855021      -0.39353170        0
O        0.69483846       5.81092666      -1.51802973        1
H        1.20327957       6.34932041      -2.12453748        1
H        0.84710739       6.20700917      -0.66002934        1
O       -0.74188025      -5.84335933       0.95265639        2
H       -0.18958356      -5.36939107       1.57439130        2
H       -0.12690880      -6.35445666       0.42651812        2
O       -2.47388297       3.72548285       0.58817655        3
H       -2.04361690       3.68426861      -0.26587516        3
H       -2.08705292       3.00575655       1.08676296        3
27
Properties=species:S:1:pos:R:3:fragment_id:I:1 config_id=canonical_p3__mobley_2689721__cluster_3water__compressed molecule_id=mobley_2689721 smiles=C1CCCCC1 split=canonical_prospective_3 chemical_role=stratum_1 category=cluster_3water motif=compressed regime=compressed conformer_index=0 n_solute_atoms=18 n_waters=3 pbc="F F F"
C       -1.39026155      -0.40889633      -0.25700424        0
C       -1.02873188       1.05642883      -0.02935880        0
C        0.41909817       1.34556972      -0.41651459        0
C        1.39026163       0.40889637       0.29705997        0
C        1.02873190      -1.05642890       0.06941436        0
C       -0.41909814      -1.34556963       0.45657016        0
H       -2.41047398      -0.59636275       0.09626399        0
H       -1.37972411      -0.62383494      -1.33268817        0
H       -1.18071620       1.30923102       1.02723832        0
H       -1.70113333       1.69698522      -0.61102819        0
H        0.66492758       2.38573599      -0.17485872        0
H        0.53543530       1.23322093      -1.50152568        0
H        2.41047411       0.59636258      -0.05620824        0
H        1.37972422       0.62383507       1.37274393        0
H        1.70113316      -1.69698563       0.65108366        0
H        1.18071624      -1.30923105      -0.98718274        0
H       -0.53543502      -1.23322077       1.54158123        0
H       -0.66492808      -2.38573572       0.21491419        0
O       -4.27403535      -0.04910654      -0.65163860        1
H       -3.60508669       0.63022506      -0.56650272        1
H       -3.79080865      -0.87218759      -0.57910330        1
O       -7.03246052      -0.79931313      -1.21718583        2
H       -6.67273746       0.08269760      -1.12290838        2
H       -6.28298898      -1.37965713      -1.08405021        2
O       -9.61736685      -0.90015995      -1.99032471        3
H       -9.08471913      -0.12186553      -1.82669087        3
H       -9.02817258      -1.63468714      -1.81841847        3
27
Properties=species:S:1:pos:R:3:fragment_id:I:1 config_id=canonical_p3__mobley_2689721__cluster_3water__cooperative molecule_id=mobley_2689721 smiles=C1CCCCC1 split=canonical_prospective_3 chemical_role=stratum_1 category=cluster_3water motif=cooperative regime=cooperative conformer_index=0 n_solute_atoms=18 n_waters=3 pbc="F F F"
C       -1.39026155      -0.40889633      -0.25700424        0
C       -1.02873188       1.05642883      -0.02935880        0
C        0.41909817       1.34556972      -0.41651459        0
C        1.39026163       0.40889637       0.29705997        0
C        1.02873190      -1.05642890       0.06941436        0
C       -0.41909814      -1.34556963       0.45657016        0
H       -2.41047398      -0.59636275       0.09626399        0
H       -1.37972411      -0.62383494      -1.33268817        0
H       -1.18071620       1.30923102       1.02723832        0
H       -1.70113333       1.69698522      -0.61102819        0
H        0.66492758       2.38573599      -0.17485872        0
H        0.53543530       1.23322093      -1.50152568        0
H        2.41047411       0.59636258      -0.05620824        0
H        1.37972422       0.62383507       1.37274393        0
H        1.70113316      -1.69698563       0.65108366        0
H        1.18071624      -1.30923105      -0.98718274        0
H       -0.53543502      -1.23322077       1.54158123        0
H       -0.66492808      -2.38573572       0.21491419        0
O       -1.63149968      -4.04380377       1.98692543        1
H       -2.03146849      -3.17643157       1.92429754        1
H       -0.80497628      -3.96186660       1.51113428        1
O       -2.43982162      -6.49801260       3.02664668        2
H       -2.93677489      -5.68032851       3.00091693        2
H       -1.60280286      -6.28319754       2.61495998        2
O       -3.32533526      -9.08548931       4.05937110        3
H       -3.81785536      -8.26511441       4.03405682        3
H       -2.47786935      -8.86871022       3.67073218        3
27
Properties=species:S:1:pos:R:3:fragment_id:I:1 config_id=canonical_p3__mobley_2689721__cluster_3water__equilibrium molecule_id=mobley_2689721 smiles=C1CCCCC1 split=canonical_prospective_3 chemical_role=stratum_1 category=cluster_3water motif=equilibrium regime=equilibrium conformer_index=0 n_solute_atoms=18 n_waters=3 pbc="F F F"
C       -1.39026155      -0.40889633      -0.25700424        0
C       -1.02873188       1.05642883      -0.02935880        0
C        0.41909817       1.34556972      -0.41651459        0
C        1.39026163       0.40889637       0.29705997        0
C        1.02873190      -1.05642890       0.06941436        0
C       -0.41909814      -1.34556963       0.45657016        0
H       -2.41047398      -0.59636275       0.09626399        0
H       -1.37972411      -0.62383494      -1.33268817        0
H       -1.18071620       1.30923102       1.02723832        0
H       -1.70113333       1.69698522      -0.61102819        0
H        0.66492758       2.38573599      -0.17485872        0
H        0.53543530       1.23322093      -1.50152568        0
H        2.41047411       0.59636258      -0.05620824        0
H        1.37972422       0.62383507       1.37274393        0
H        1.70113316      -1.69698563       0.65108366        0
H        1.18071624      -1.30923105      -0.98718274        0
H       -0.53543502      -1.23322077       1.54158123        0
H       -0.66492808      -2.38573572       0.21491419        0
O       -2.15281948      -3.55864464       1.80185900        1
H       -2.68861128      -2.76711996       1.75040352        1
H       -2.14781200      -3.78501463       2.73189309        1
O        4.24446726       1.24109714       1.87397646        2
H        4.35363777       0.93751248       0.97278282        2
H        3.76485542       2.06551002       1.79305843        2
O       -2.80536097       3.76991608       0.63239069        3
H       -3.00920171       2.84272454       0.50992988        3
H       -2.84458894       4.14262605      -0.24839321        3
27
Properties=species:S:1:pos:R:3:fragment_id:I:1 config_id=canonical_p3__mobley_2689721__cluster_3water__orientation molecule_id=mobley_2689721 smiles=C1CCCCC1 split=canonical_prospective_3 chemical_role=stratum_1 category=cluster_3water motif=orientation regime=orientation conformer_index=0 n_solute_atoms=18 n_waters=3 pbc="F F F"
C       -1.39026155      -0.40889633      -0.25700424        0
C       -1.02873188       1.05642883      -0.02935880        0
C        0.41909817       1.34556972      -0.41651459        0
C        1.39026163       0.40889637       0.29705997        0
C        1.02873190      -1.05642890       0.06941436        0
C       -0.41909814      -1.34556963       0.45657016        0
H       -2.41047398      -0.59636275       0.09626399        0
H       -1.37972411      -0.62383494      -1.33268817        0
H       -1.18071620       1.30923102       1.02723832        0
H       -1.70113333       1.69698522      -0.61102819        0
H        0.66492758       2.38573599      -0.17485872        0
H        0.53543530       1.23322093      -1.50152568        0
H        2.41047411       0.59636258      -0.05620824        0
H        1.37972422       0.62383507       1.37274393        0
H        1.70113316      -1.69698563       0.65108366        0
H        1.18071624      -1.30923105      -0.98718274        0
H       -0.53543502      -1.23322077       1.54158123        0
H       -0.66492808      -2.38573572       0.21491419        0
O       -2.15281948      -3.55864464       1.80185900        1
H       -2.80829859      -2.86657124       1.88911367        1
H       -1.53259671      -3.39264689       2.51178879        1
O        4.24446726       1.24109714       1.87397646        2
H        4.60358653       0.47835354       2.32728363        2
H        4.63725504       1.99185866       2.31929291        2
O       -2.80536097       3.76991608       0.63239069        3
H       -2.70185082       3.94286314       1.56812933        3
H       -3.49820175       4.36833853       0.35293754        3
21
Properties=species:S:1:pos:R:3:fragment_id:I:1 config_id=canonical_p3__mobley_2727678__cluster_3water__compressed molecule_id=mobley_2727678 smiles="O=c1[nH]cc(I)c(=O)[nH]1" split=canonical_prospective_3 chemical_role=stratum_5 category=cluster_3water motif=compressed regime=compressed conformer_index=0 n_solute_atoms=12 n_waters=3 pbc="F F F"
O       -2.50347050      -1.02013728       0.09488437        0
C       -1.36862043      -0.56000479       0.05186495        0
N       -1.13218261       0.78709420       0.04681653        0
C        0.12035635       1.33778385      -0.00052984        0
C        1.22376674       0.57866663      -0.04613132        0
I        3.10061564       1.37905619      -0.11715441        0
C        1.04059361      -0.90583827      -0.04359982        0
O        1.97589091      -1.69938298      -0.08272339        0
N       -0.25651119      -1.35040902       0.00582409        0
H       -1.95617680       1.37811136       0.08094603        0
H        0.15697268       2.42312178       0.00143083        0
H       -0.40123441      -2.34806167       0.00837198        0
O       -1.04119447      -3.48727456      -1.88860194        1
H       -1.43212809      -2.61912476      -1.79001867        1
H       -0.33979357      -3.50995352      -1.23763782        1
O       -1.85155746      -5.84806240      -3.33614313        2
H       -2.30634142      -5.00736821      -3.28479472        2
H       -1.06768110      -5.73002904      -2.79963794        2
O       -2.60868792      -8.17161644      -4.67531627        3
H       -3.08065814      -7.33997773      -4.63226985        3
H       -1.81835264      -8.02622616      -4.15525507        3
21
Properties=species:S:1:pos:R:3:fragment_id:I:1 config_id=canonical_p3__mobley_2727678__cluster_3water__cooperative molecule_id=mobley_2727678 smiles="O=c1[nH]cc(I)c(=O)[nH]1" split=canonical_prospective_3 chemical_role=stratum_5 category=cluster_3water motif=cooperative regime=cooperative conformer_index=0 n_solute_atoms=12 n_waters=3 pbc="F F F"
O       -2.50347050      -1.02013728       0.09488437        0
C       -1.36862043      -0.56000479       0.05186495        0
N       -1.13218261       0.78709420       0.04681653        0
C        0.12035635       1.33778385      -0.00052984        0
C        1.22376674       0.57866663      -0.04613132        0
I        3.10061564       1.37905619      -0.11715441        0
C        1.04059361      -0.90583827      -0.04359982        0
O        1.97589091      -1.69938298      -0.08272339        0
N       -0.25651119      -1.35040902       0.00582409        0
H       -1.95617680       1.37811136       0.08094603        0
H        0.15697268       2.42312178       0.00143083        0
H       -0.40123441      -2.34806167       0.00837198        0
O        4.21733613      -3.34304249      -0.47557221        1
H        3.30630444      -3.53083637      -0.70137424        1
H        4.19273655      -2.46914697      -0.08578596        1
O        6.42459422      -4.94252574      -0.96359004        2
H        5.52039147      -5.09161875      -1.24003264        2
H        6.39481527      -4.11662557      -0.48064702        2
O        8.53277031      -6.75107503      -1.22548361        3
H        7.59937690      -6.91596551      -1.35897413        3
H        8.58074205      -5.82660439      -0.98199932        3
21
Properties=species:S:1:pos:R:3:fragment_id:I:1 config_id=canonical_p3__mobley_2727678__cluster_3water__equilibrium molecule_id=mobley_2727678 smiles="O=c1[nH]cc(I)c(=O)[nH]1" split=canonical_prospective_3 chemical_role=stratum_5 category=cluster_3water motif=equilibrium regime=equilibrium conformer_index=0 n_solute_atoms=12 n_waters=3 pbc="F F F"
O       -2.50347050      -1.02013728       0.09488437        0
C       -1.36862043      -0.56000479       0.05186495        0
N       -1.13218261       0.78709420       0.04681653        0
C        0.12035635       1.33778385      -0.00052984        0
C        1.22376674       0.57866663      -0.04613132        0
I        3.10061564       1.37905619      -0.11715441        0
C        1.04059361      -0.90583827      -0.04359982        0
O        1.97589091      -1.69938298      -0.08272339        0
N       -0.25651119      -1.35040902       0.00582409        0
H       -1.95617680       1.37811136       0.08094603        0
H        0.15697268       2.42312178       0.00143083        0
H       -0.40123441      -2.34806167       0.00837198        0
O        6.05279829       2.60143908      -0.43031686        1
H        5.23474494       3.07946019      -0.29424194        1
H        5.92554500       2.13889952      -1.25862574        1
O       -1.20853698      -5.64451691       0.76876606        2
H       -1.52593816      -4.76539595       0.56228442        2
H       -0.29993729      -5.51403226       1.04015546        2
O        1.47407447       3.93101125      -0.24040242        3
H        1.72468147       4.36678735      -1.05497419        3
H        2.14060139       3.25561407      -0.11465523        3
21
Properties=species:S:1:pos:R:3:fragment_id:I:1 config_id=canonical_p3__mobley_2727678__cluster_3water__orientation molecule_id=mobley_2727678 smiles="O=c1[nH]cc(I)c(=O)[nH]1" split=canonical_prospective_3 chemical_role=stratum_5 category=cluster_3water motif=orientation regime=orientation conformer_index=0 n_solute_atoms=12 n_waters=3 pbc="F F F"
O       -2.50347050      -1.02013728       0.09488437        0
C       -1.36862043      -0.56000479       0.05186495        0
N       -1.13218261       0.78709420       0.04681653        0
C        0.12035635       1.33778385      -0.00052984        0
C        1.22376674       0.57866663      -0.04613132        0
I        3.10061564       1.37905619      -0.11715441        0
C        1.04059361      -0.90583827      -0.04359982        0
O        1.97589091      -1.69938298      -0.08272339        0
N       -0.25651119      -1.35040902       0.00582409        0
H       -1.95617680       1.37811136       0.08094603        0
H        0.15697268       2.42312178       0.00143083        0
H       -0.40123441      -2.34806167       0.00837198        0
O        6.05279829       2.60143908      -0.43031686        1
H        6.22640424       2.09893680      -1.22629693        1
H        5.10112150       2.57335057      -0.33155366        1
O       -1.20853698      -5.64451691       0.76876606        2
H       -0.32197956      -5.30418671       0.88886248        2
H       -1.13848453      -6.57589102       0.97820998        2
O        1.47407447       3.93101125      -0.24040242        3
H        1.03079804       4.77633498      -0.31227475        3
H        1.79462552       3.90400593       0.66112383        3
41
Properties=species:S:1:pos:R:3:fragment_id:I:1 config_id=canonical_p3__mobley_3047364__cluster_3water__compressed molecule_id=mobley_3047364 smiles=CCNc1nc(NC(C)C)nc(SC)n1 split=canonical_prospective_3 chemical_role=stratum_4 category=cluster_3water motif=compressed regime=compressed conformer_index=0 n_solute_atoms=32 n_waters=3 pbc="F F F"
C        4.26805638      -3.27256949       1.16195039        0
C        3.46798920      -1.99568372       1.36054740        0
N        2.36125307      -1.96315690       0.44003417        0
C        1.47970850      -0.91614982       0.41228459        0
N        0.50779413      -1.00215274      -0.48529837        0
C       -0.34941235       0.00779249      -0.52069169        0
N       -1.34892110      -0.09405838      -1.45053760        0
C       -2.43104782       0.85777384      -1.56170951        0
C       -3.53089594       0.52064786      -0.55801227        0
C       -2.98049632       0.81089862      -2.98708330        0
N       -0.28640537       1.06371050       0.27331902        0
C        0.71997026       1.05632384       1.13776903        0
S        0.89911635       2.42932383       2.25864056        0
C       -0.53358897       3.42730353       1.78511676        0
N        1.62846137       0.09617551       1.24986202        0
H        4.66229345      -3.33445956       0.14198770        0
H        3.64553336      -4.15701149       1.33458644        0
H        5.11186322      -3.30639030       1.85798600        0
H        3.10660541      -1.95917318       2.39489735        0
H        4.12594406      -1.13395180       1.19834755        0
H        2.18900546      -2.69598191      -0.22989433        0
H       -1.35363987      -0.96147034      -1.96603845        0
H       -2.07308345       1.87919468      -1.38212445        0
H       -4.37037158       1.21753269      -0.65172067        0
H       -3.91270781      -0.49512130      -0.71100259        0
H       -3.15967079       0.58114880       0.47065412        0
H       -3.79420576       1.53232760      -3.11553707        0
H       -2.19622044       1.05257945      -3.71303620        0
H       -3.36530004      -0.18463798      -3.23593467        0
H       -1.46364066       2.87385716       1.94297835        0
H       -0.46266616       3.73984258       0.73946024        0
H       -0.56131978       4.32553592       2.40819950        0
O       -0.98164644       6.19720507       3.12930947        1
H       -0.22337367       5.90811977       2.62168368        1
H       -1.57117176       5.44308980       3.13068528        1
O       -0.86210462       8.64637611       4.32184210        2
H       -0.20788268       8.23836694       3.75460846        2
H       -1.56769823       8.00188316       4.37659903        2
O       -1.27289922      11.18351630       5.52378407        3
H       -0.51121167      10.88787053       5.02512837        3
H       -1.86493681      10.43137393       5.52606178        3
41
Properties=species:S:1:pos:R:3:fragment_id:I:1 config_id=canonical_p3__mobley_3047364__cluster_3water__cooperative molecule_id=mobley_3047364 smiles=CCNc1nc(NC(C)C)nc(SC)n1 split=canonical_prospective_3 chemical_role=stratum_4 category=cluster_3water motif=cooperative regime=cooperative conformer_index=0 n_solute_atoms=32 n_waters=3 pbc="F F F"
C        4.26805638      -3.27256949       1.16195039        0
C        3.46798920      -1.99568372       1.36054740        0
N        2.36125307      -1.96315690       0.44003417        0
C        1.47970850      -0.91614982       0.41228459        0
N        0.50779413      -1.00215274      -0.48529837        0
C       -0.34941235       0.00779249      -0.52069169        0
N       -1.34892110      -0.09405838      -1.45053760        0
C       -2.43104782       0.85777384      -1.56170951        0
C       -3.53089594       0.52064786      -0.55801227        0
C       -2.98049632       0.81089862      -2.98708330        0
N       -0.28640537       1.06371050       0.27331902        0
C        0.71997026       1.05632384       1.13776903        0
S        0.89911635       2.42932383       2.25864056        0
C       -0.53358897       3.42730353       1.78511676        0
N        1.62846137       0.09617551       1.24986202        0
H        4.66229345      -3.33445956       0.14198770        0
H        3.64553336      -4.15701149       1.33458644        0
H        5.11186322      -3.30639030       1.85798600        0
H        3.10660541      -1.95917318       2.39489735        0
H        4.12594406      -1.13395180       1.19834755        0
H        2.18900546      -2.69598191      -0.22989433        0
H       -1.35363987      -0.96147034      -1.96603845        0
H       -2.07308345       1.87919468      -1.38212445        0
H       -4.37037158       1.21753269      -0.65172067        0
H       -3.91270781      -0.49512130      -0.71100259        0
H       -3.15967079       0.58114880       0.47065412        0
H       -3.79420576       1.53232760      -3.11553707        0
H       -2.19622044       1.05257945      -3.71303620        0
H       -3.36530004      -0.18463798      -3.23593467        0
H       -1.46364066       2.87385716       1.94297835        0
H       -0.46266616       3.73984258       0.73946024        0
H       -0.56131978       4.32553592       2.40819950        0
O        6.95635795      -5.35570362       1.91882284        1
H        6.05172942      -5.43307679       2.22196053        1
H        6.95687481      -4.57774466       1.36113885        1
O        9.07232623      -7.17730038       2.48474170        2
H        8.15315180      -7.24878535       2.74211324        2
H        9.12117092      -6.35656513       1.99459918        2
O       11.29411706      -8.95069367       3.01733203        3
H       10.37991294      -9.06220886       3.27815198        3
H       11.30817642      -8.12069921       2.54073643        3
41
Properties=species:S:1:pos:R:3:fragment_id:I:1 config_id=canonical_p3__mobley_3047364__cluster_3water__equilibrium molecule_id=mobley_3047364 smiles=CCNc1nc(NC(C)C)nc(SC)n1 split=canonical_prospective_3 chemical_role=stratum_4 category=cluster_3water motif=equilibrium regime=equilibrium conformer_index=0 n_solute_atoms=32 n_waters=3 pbc="F F F"
C        4.26805638      -3.27256949       1.16195039        0
C        3.46798920      -1.99568372       1.36054740        0
N        2.36125307      -1.96315690       0.44003417        0
C        1.47970850      -0.91614982       0.41228459        0
N        0.50779413      -1.00215274      -0.48529837        0
C       -0.34941235       0.00779249      -0.52069169        0
N       -1.34892110      -0.09405838      -1.45053760        0
C       -2.43104782       0.85777384      -1.56170951        0
C       -3.53089594       0.52064786      -0.55801227        0
C       -2.98049632       0.81089862      -2.98708330        0
N       -0.28640537       1.06371050       0.27331902        0
C        0.71997026       1.05632384       1.13776903        0
S        0.89911635       2.42932383       2.25864056        0
C       -0.53358897       3.42730353       1.78511676        0
N        1.62846137       0.09617551       1.24986202        0
H        4.66229345      -3.33445956       0.14198770        0
H        3.64553336      -4.15701149       1.33458644        0
H        5.11186322      -3.30639030       1.85798600        0
H        3.10660541      -1.95917318       2.39489735        0
H        4.12594406      -1.13395180       1.19834755        0
H        2.18900546      -2.69598191      -0.22989433        0
H       -1.35363987      -0.96147034      -1.96603845        0
H       -2.07308345       1.87919468      -1.38212445        0
H       -4.37037158       1.21753269      -0.65172067        0
H       -3.91270781      -0.49512130      -0.71100259        0
H       -3.15967079       0.58114880       0.47065412        0
H       -3.79420576       1.53232760      -3.11553707        0
H       -2.19622044       1.05257945      -3.71303620        0
H       -3.36530004      -0.18463798      -3.23593467        0
H       -1.46364066       2.87385716       1.94297835        0
H       -0.46266616       3.73984258       0.73946024        0
H       -0.56131978       4.32553592       2.40819950        0
O       -1.96517245       7.12121070       3.15181802        1
H       -1.86835145       6.66213523       2.31748760        1
H       -2.55413818       6.56692061       3.66378843        1
O        5.42242641       0.43892330       3.24053269        2
H        5.22280106       0.41095766       2.30479796        2
H        6.37573262       0.36493682       3.28486228        2
O       -1.56140206       4.52868902      -1.24918396        3
H       -1.73951615       4.79460729      -2.15128966        3
H       -2.36085589       4.74986692      -0.77149604        3
41
Properties=species:S:1:pos:R:3:fragment_id:I:1 config_id=canonical_p3__mobley_3047364__cluster_3water__orientation molecule_id=mobley_3047364 smiles=CCNc1nc(NC(C)C)nc(SC)n1 split=canonical_prospective_3 chemical_role=stratum_4 category=cluster_3water motif=orientation regime=orientation conformer_index=0 n_solute_atoms=32 n_waters=3 pbc="F F F"
C        4.26805638      -3.27256949       1.16195039        0
C        3.46798920      -1.99568372       1.36054740        0
N        2.36125307      -1.96315690       0.44003417        0
C        1.47970850      -0.91614982       0.41228459        0
N        0.50779413      -1.00215274      -0.48529837        0
C       -0.34941235       0.00779249      -0.52069169        0
N       -1.34892110      -0.09405838      -1.45053760        0
C       -2.43104782       0.85777384      -1.56170951        0
C       -3.53089594       0.52064786      -0.55801227        0
C       -2.98049632       0.81089862      -2.98708330        0
N       -0.28640537       1.06371050       0.27331902        0
C        0.71997026       1.05632384       1.13776903        0
S        0.89911635       2.42932383       2.25864056        0
C       -0.53358897       3.42730353       1.78511676        0
N        1.62846137       0.09617551       1.24986202        0
H        4.66229345      -3.33445956       0.14198770        0
H        3.64553336      -4.15701149       1.33458644        0
H        5.11186322      -3.30639030       1.85798600        0
H        3.10660541      -1.95917318       2.39489735        0
H        4.12594406      -1.13395180       1.19834755        0
H        2.18900546      -2.69598191      -0.22989433        0
H       -1.35363987      -0.96147034      -1.96603845        0
H       -2.07308345       1.87919468      -1.38212445        0
H       -4.37037158       1.21753269      -0.65172067        0
H       -3.91270781      -0.49512130      -0.71100259        0
H       -3.15967079       0.58114880       0.47065412        0
H       -3.79420576       1.53232760      -3.11553707        0
H       -2.19622044       1.05257945      -3.71303620        0
H       -3.36530004      -0.18463798      -3.23593467        0
H       -1.46364066       2.87385716       1.94297835        0
H       -0.46266616       3.73984258       0.73946024        0
H       -0.56131978       4.32553592       2.40819950        0
O       -1.96517245       7.12121070       3.15181802        1
H       -2.58552585       6.49851495       2.77281471        1
H       -1.34080968       7.29660172       2.44780029        1
O        5.42242641       0.43892330       3.24053269        2
H        4.47671359       0.50547453       3.37255551        2
H        5.54178883      -0.38720476       2.77202773        2
O       -1.56140206       4.52868902      -1.24918396        3
H       -1.18109846       4.32271267      -2.10310127        3
H       -1.20276545       3.86474587      -0.66029423        3
36
Properties=species:S:1:pos:R:3:fragment_id:I:1 config_id=canonical_p3__mobley_3709920__cluster_3water__compressed molecule_id=mobley_3709920 smiles=C=CCCCCCCC split=canonical_prospective_3 chemical_role=stratum_1 category=cluster_3water motif=compressed regime=compressed conformer_index=0 n_solute_atoms=27 n_waters=3 pbc="F F F"
C       -4.63122737       0.65459414       0.53342122        0
C       -4.22906459      -0.58606487       0.22880162        0
C       -2.82096375      -1.06045356      -0.01513647        0
C       -1.71443662      -0.00609834       0.09656003        0
C       -0.33724365      -0.61781171      -0.17343717        0
C        0.76941268       0.43239493      -0.06263006        0
C        2.14541568      -0.17867332      -0.33236815        0
C        3.25113377       0.87077171      -0.22162716        0
C        4.62073325       0.26731408      -0.48910020        0
H       -3.94041931       1.48394722       0.63953681        0
H       -5.68492603       0.86949107       0.68617969        0
H       -4.99259741      -1.35866664       0.14214084        0
H       -2.61481351      -1.87035582       0.69577598        0
H       -2.78888370      -1.50620344      -1.01719132        0
H       -1.72238225       0.43725305       1.10001588        0
H       -1.89729691       0.80316745      -0.62121266        0
H       -0.14819063      -1.42735715       0.54202269        0
H       -0.32279108      -1.06208926      -1.17613186        0
H        0.75501198       0.87681071       0.94000901        0
H        0.58042740       1.24204513      -0.77799635        0
H        2.15995099      -0.62327469      -1.33495891        0
H        2.33451505      -0.98846853       0.38285430        0
H        3.24365425       1.31548351       0.78031122        0
H        3.06907951       1.68069605      -0.93757696        0
H        5.39622760       1.03503492      -0.40469243        0
H        4.67206649      -0.15812269      -1.49642540        0
H        4.84760816      -0.52536397       0.23098666        0
O        7.40534492       2.23632106      -0.11392350        1
H        7.08523623       1.34366534      -0.24403129        1
H        6.61262481       2.76317383      -0.01266734        1
O       10.11101481       3.10634749      -0.22317063        2
H        9.78521705       2.22997721      -0.01807849        2
H        9.32212410       3.62428216      -0.38325488        2
O       12.84291510       4.06804343      -0.13527570        3
H       12.54175985       3.17209926      -0.28634325        3
H       12.03929873       4.57508088      -0.01975258        3
36
Properties=species:S:1:pos:R:3:fragment_id:I:1 config_id=canonical_p3__mobley_3709920__cluster_3water__cooperative molecule_id=mobley_3709920 smiles=C=CCCCCCCC split=canonical_prospective_3 chemical_role=stratum_1 category=cluster_3water motif=cooperative regime=cooperative conformer_index=0 n_solute_atoms=27 n_waters=3 pbc="F F F"
C       -4.63122737       0.65459414       0.53342122        0
C       -4.22906459      -0.58606487       0.22880162        0
C       -2.82096375      -1.06045356      -0.01513647        0
C       -1.71443662      -0.00609834       0.09656003        0
C       -0.33724365      -0.61781171      -0.17343717        0
C        0.76941268       0.43239493      -0.06263006        0
C        2.14541568      -0.17867332      -0.33236815        0
C        3.25113377       0.87077171      -0.22162716        0
C        4.62073325       0.26731408      -0.48910020        0
H       -3.94041931       1.48394722       0.63953681        0
H       -5.68492603       0.86949107       0.68617969        0
H       -4.99259741      -1.35866664       0.14214084        0
H       -2.61481351      -1.87035582       0.69577598        0
H       -2.78888370      -1.50620344      -1.01719132        0
H       -1.72238225       0.43725305       1.10001588        0
H       -1.89729691       0.80316745      -0.62121266        0
H       -0.14819063      -1.42735715       0.54202269        0
H       -0.32279108      -1.06208926      -1.17613186        0
H        0.75501198       0.87681071       0.94000901        0
H        0.58042740       1.24204513      -0.77799635        0
H        2.15995099      -0.62327469      -1.33495891        0
H        2.33451505      -0.98846853       0.38285430        0
H        3.24365425       1.31548351       0.78031122        0
H        3.06907951       1.68069605      -0.93757696        0
H        5.39622760       1.03503492      -0.40469243        0
H        4.67206649      -0.15812269      -1.49642540        0
H        4.84760816      -0.52536397       0.23098666        0
O        8.05810328       0.93338931      -0.88797780        1
H        7.62969046       0.47899550      -0.16256719        1
H        7.34354289       1.16630387      -1.48075608        1
O       10.83656699       1.50017618      -1.05115427        2
H       10.41450201       0.75742683      -0.61939462        2
H       10.11240853       2.00910409      -1.41559733        2
O       13.58333938       1.95437600      -1.20567207        3
H       13.12949549       1.26914430      -0.71504484        3
H       12.88289380       2.44873710      -1.63136554        3
36
Properties=species:S:1:pos:R:3:fragment_id:I:1 config_id=canonical_p3__mobley_3709920__cluster_3water__equilibrium molecule_id=mobley_3709920 smiles=C=CCCCCCCC split=canonical_prospective_3 chemical_role=stratum_1 category=cluster_3water motif=equilibrium regime=equilibrium conformer_index=0 n_solute_atoms=27 n_waters=3 pbc="F F F"
C       -4.63122737       0.65459414       0.53342122        0
C       -4.22906459      -0.58606487       0.22880162        0
C       -2.82096375      -1.06045356      -0.01513647        0
C       -1.71443662      -0.00609834       0.09656003        0
C       -0.33724365      -0.61781171      -0.17343717        0
C        0.76941268       0.43239493      -0.06263006        0
C        2.14541568      -0.17867332      -0.33236815        0
C        3.25113377       0.87077171      -0.22162716        0
C        4.62073325       0.26731408      -0.48910020        0
H       -3.94041931       1.48394722       0.63953681        0
H       -5.68492603       0.86949107       0.68617969        0
H       -4.99259741      -1.35866664       0.14214084        0
H       -2.61481351      -1.87035582       0.69577598        0
H       -2.78888370      -1.50620344      -1.01719132        0
H       -1.72238225       0.43725305       1.10001588        0
H       -1.89729691       0.80316745      -0.62121266        0
H       -0.14819063      -1.42735715       0.54202269        0
H       -0.32279108      -1.06208926      -1.17613186        0
H        0.75501198       0.87681071       0.94000901        0
H        0.58042740       1.24204513      -0.77799635        0
H        2.15995099      -0.62327469      -1.33495891        0
H        2.33451505      -0.98846853       0.38285430        0
H        3.24365425       1.31548351       0.78031122        0
H        3.06907951       1.68069605      -0.93757696        0
H        5.39622760       1.03503492      -0.40469243        0
H        4.67206649      -0.15812269      -1.49642540        0
H        4.84760816      -0.52536397       0.23098666        0
O       -8.80127690       0.73364413       0.68472721        1
H       -8.23791689       0.75610721      -0.08880543        1
H       -9.57839593       0.25174081       0.40173067        1
O        7.30160948      -1.34229052      -1.45471751        2
H        6.68423744      -1.61363326      -2.13402356        2
H        6.82369073      -0.68972861      -0.94286943        2
O        3.25154774       4.49986717      -1.30040430        3
H        4.08047635       4.67924951      -0.85663500        3
H        3.44778190       3.77214160      -1.89043777        3
36
Properties=species:S:1:pos:R:3:fragment_id:I:1 config_id=canonical_p3__mobley_3709920__cluster_3water__orientation molecule_id=mobley_3709920 smiles=C=CCCCCCCC split=canonical_prospective_3 chemical_role=stratum_1 category=cluster_3water motif=orientation regime=orientation conformer_index=0 n_solute_atoms=27 n_waters=3 pbc="F F F"
C       -4.63122737       0.65459414       0.53342122        0
C       -4.22906459      -0.58606487       0.22880162        0
C       -2.82096375      -1.06045356      -0.01513647        0
C       -1.71443662      -0.00609834       0.09656003        0
C       -0.33724365      -0.61781171      -0.17343717        0
C        0.76941268       0.43239493      -0.06263006        0
C        2.14541568      -0.17867332      -0.33236815        0
C        3.25113377       0.87077171      -0.22162716        0
C        4.62073325       0.26731408      -0.48910020        0
H       -3.94041931       1.48394722       0.63953681        0
H       -5.68492603       0.86949107       0.68617969        0
H       -4.99259741      -1.35866664       0.14214084        0
H       -2.61481351      -1.87035582       0.69577598        0
H       -2.78888370      -1.50620344      -1.01719132        0
H       -1.72238225       0.43725305       1.10001588        0
H       -1.89729691       0.80316745      -0.62121266        0
H       -0.14819063      -1.42735715       0.54202269        0
H       -0.32279108      -1.06208926      -1.17613186        0
H        0.75501198       0.87681071       0.94000901        0
H        0.58042740       1.24204513      -0.77799635        0
H        2.15995099      -0.62327469      -1.33495891        0
H        2.33451505      -0.98846853       0.38285430        0
H        3.24365425       1.31548351       0.78031122        0
H        3.06907951       1.68069605      -0.93757696        0
H        5.39622760       1.03503492      -0.40469243        0
H        4.67206649      -0.15812269      -1.49642540        0
H        4.84760816      -0.52536397       0.23098666        0
O       -8.80127690       0.73364413       0.68472721        1
H       -8.62412222      -0.15659569       0.98857113        1
H       -9.75553169       0.80706513       0.70018661        1
O        7.30160948      -1.34229052      -1.45471751        2
H        7.80690144      -2.13349492      -1.64155293        2
H        6.70008184      -1.26132867      -2.19488067        2
O        3.25154774       4.49986717      -1.30040430        3
H        3.68234804       4.62079680      -0.45422526        3
H        3.74632128       5.05500405      -1.90310989        3
25
Properties=species:S:1:pos:R:3:fragment_id:I:1 config_id=canonical_p3__mobley_3777264__cluster_3water__compressed molecule_id=mobley_3777264 smiles="Nc1cccc([N+](=O)[O-])c1" split=canonical_prospective_3 chemical_role=stratum_3 category=cluster_3water motif=compressed regime=compressed conformer_index=0 n_solute_atoms=16 n_waters=3 pbc="F F F"
N       -2.27578829      -1.28639636      -0.02884395        0
C       -1.17640334      -0.45620312       0.07201886        0
C       -1.29989282       0.82002900       0.63070400        0
C       -0.19585742       1.67106753       0.73915492        0
C        1.05337611       1.25229016       0.28674470        0
C        1.18303534      -0.02411559      -0.27340595        0
N        2.49365265      -0.47613088      -0.75332752        0
O        3.44985271       0.30478771      -0.64118425        0
O        2.57047938      -1.61217482      -1.24326388        0
C        0.07476281      -0.87692147      -0.38165168        0
H       -2.19615448      -2.21078042      -0.43125010        0
H       -3.18396766      -0.98586827       0.29854271        0
H       -2.26675192       1.16560937       0.98976897        0
H       -0.31475928       2.65943280       1.17700458        0
H        1.90501778       1.92308662       0.37635913        0
H        0.17939845      -1.86771226      -0.81737052        0
O        5.33999140      -0.88502281      -1.00365612        1
H        4.65501807      -1.13860416      -1.62231587        1
H        4.86947707      -0.46544942      -0.28337404        1
O        8.19645333      -1.38297241      -1.29354953        2
H        7.49278928      -1.64542553      -1.88701991        2
H        7.75148781      -0.92028570      -0.58350831        2
O       10.81618452      -1.84631655      -1.50307982        3
H       10.10961108      -2.23300070      -2.02024631        3
H       10.37246400      -1.25618329      -0.89391098        3
25
Properties=species:S:1:pos:R:3:fragment_id:I:1 config_id=canonical_p3__mobley_3777264__cluster_3water__cooperative molecule_id=mobley_3777264 smiles="Nc1cccc([N+](=O)[O-])c1" split=canonical_prospective_3 chemical_role=stratum_3 category=cluster_3water motif=cooperative regime=cooperative conformer_index=0 n_solute_atoms=16 n_waters=3 pbc="F F F"
N       -2.27578829      -1.28639636      -0.02884395        0
C       -1.17640334      -0.45620312       0.07201886        0
C       -1.29989282       0.82002900       0.63070400        0
C       -0.19585742       1.67106753       0.73915492        0
C        1.05337611       1.25229016       0.28674470        0
C        1.18303534      -0.02411559      -0.27340595        0
N        2.49365265      -0.47613088      -0.75332752        0
O        3.44985271       0.30478771      -0.64118425        0
O        2.57047938      -1.61217482      -1.24326388        0
C        0.07476281      -0.87692147      -0.38165168        0
H       -2.19615448      -2.21078042      -0.43125010        0
H       -3.18396766      -0.98586827       0.29854271        0
H       -2.26675192       1.16560937       0.98976897        0
H       -0.31475928       2.65943280       1.17700458        0
H        1.90501778       1.92308662       0.37635913        0
H        0.17939845      -1.86771226      -0.81737052        0
O        0.56210421      -3.63771262      -2.79485244        1
H       -0.08003453      -2.92912038      -2.83712213        1
H        1.04986584      -3.47175790      -1.98814341        1
O        0.87238808      -5.53488037      -5.01241878        2
H        0.32112567      -4.75290471      -4.98316710        2
H        1.29976533      -5.55938542      -4.15627625        2
O        0.95779517      -7.54788831      -7.00291789        3
H        0.40212699      -6.76879567      -6.98102317        3
H        1.47812842      -7.49415196      -6.20129606        3
25
Properties=species:S:1:pos:R:3:fragment_id:I:1 config_id=canonical_p3__mobley_3777264__cluster_3water__equilibrium molecule_id=mobley_3777264 smiles="Nc1cccc([N+](=O)[O-])c1" split=canonical_prospective_3 chemical_role=stratum_3 category=cluster_3water motif=equilibrium regime=equilibrium conformer_index=0 n_solute_atoms=16 n_waters=3 pbc="F F F"
N       -2.27578829      -1.28639636      -0.02884395        0
C       -1.17640334      -0.45620312       0.07201886        0
C       -1.29989282       0.82002900       0.63070400        0
C       -0.19585742       1.67106753       0.73915492        0
C        1.05337611       1.25229016       0.28674470        0
C        1.18303534      -0.02411559      -0.27340595        0
N        2.49365265      -0.47613088      -0.75332752        0
O        3.44985271       0.30478771      -0.64118425        0
O        2.57047938      -1.61217482      -1.24326388        0
C        0.07476281      -0.87692147      -0.38165168        0
H       -2.19615448      -2.21078042      -0.43125010        0
H       -3.18396766      -0.98586827       0.29854271        0
H       -2.26675192       1.16560937       0.98976897        0
H       -0.31475928       2.65943280       1.17700458        0
H        1.90501778       1.92308662       0.37635913        0
H        0.17939845      -1.86771226      -0.81737052        0
O        5.74536265       0.51174646      -0.76247367        1
H        6.62022118       0.82630420      -0.99030656        1
H        5.78494953       0.35465938       0.18091828        1
O        3.34998174       3.40939868       0.20387345        2
H        4.27830275       3.18094071       0.25140145        2
H        3.31470525       4.14413976      -0.40861570        2
O       -4.72943139      -3.34949207       0.55066873        3
H       -4.13795176      -4.07105257       0.76452415        3
H       -4.18208921      -2.72264537       0.07768713        3
25
Properties=species:S:1:pos:R:3:fragment_id:I:1 config_id=canonical_p3__mobley_3777264__cluster_3water__orientation molecule_id=mobley_3777264 smiles="Nc1cccc([N+](=O)[O-])c1" split=canonical_prospective_3 chemical_role=stratum_3 category=cluster_3water motif=orientation regime=orientation conformer_index=0 n_solute_atoms=16 n_waters=3 pbc="F F F"
N       -2.27578829      -1.28639636      -0.02884395        0
C       -1.17640334      -0.45620312       0.07201886        0
C       -1.29989282       0.82002900       0.63070400        0
C       -0.19585742       1.67106753       0.73915492        0
C        1.05337611       1.25229016       0.28674470        0
C        1.18303534      -0.02411559      -0.27340595        0
N        2.49365265      -0.47613088      -0.75332752        0
O        3.44985271       0.30478771      -0.64118425        0
O        2.57047938      -1.61217482      -1.24326388        0
C        0.07476281      -0.87692147      -0.38165168        0
H       -2.19615448      -2.21078042      -0.43125010        0
H       -3.18396766      -0.98586827       0.29854271        0
H       -2.26675192       1.16560937       0.98976897        0
H       -0.31475928       2.65943280       1.17700458        0
H        1.90501778       1.92308662       0.37635913        0
H        0.17939845      -1.86771226      -0.81737052        0
O        5.74536265       0.51174646      -0.76247367        1
H        5.50905531       1.42651121      -0.91608401        1
H        5.20350995       0.24537662      -0.01972567        1
O        3.34998174       3.40939868       0.20387345        2
H        4.04280457       3.18855173       0.82633227        2
H        2.93614981       4.18990560       0.57236213        2
O       -4.72943139      -3.34949207       0.55066873        3
H       -5.37415579      -2.85819408       0.04156307        3
H       -4.28302407      -3.89889161      -0.09362351        3
35
Properties=species:S:1:pos:R:3:fragment_id:I:1 config_id=canonical_p3__mobley_4479135__cluster_3water__compressed molecule_id=mobley_4479135 smiles=C=C(c1ccccc1)c1ccccc1 split=canonical_prospective_3 chemical_role=stratum_1 category=cluster_3water motif=compressed regime=compressed conformer_index=0 n_solute_atoms=26 n_waters=3 pbc="F F F"
C       -0.11856437      -2.42108514      -0.00341706        0
C       -0.05275074      -1.07713706      -0.06222335        0
C        1.28934338      -0.44154453      -0.07695036        0
C        1.57198867       0.60484425       0.81239218        0
C        2.82128591       1.22985451       0.80227792        0
C        3.79929898       0.82000417      -0.10167133        0
C        3.52868441      -0.21180413      -0.99825100        0
C        2.27954804      -0.83744416      -0.98851919        0
C       -1.32638740      -0.31483379      -0.10866345        0
C       -1.50941839       0.67265691      -1.08698254        0
C       -2.69175143       1.41501815      -1.13669898        0
C       -3.70121674       1.18281711      -0.20467148        0
C       -3.52870561       0.21158711       0.77953633        0
C       -2.34659245      -0.53135006       0.82968739        0
H       -1.06622171      -2.95135825      -0.00846872        0
H        0.77287763      -3.03877836       0.05186584        0
H        0.81916420       0.93812836       1.52356466        0
H        3.02817148       2.03717773       1.49978438        0
H        4.77072633       1.30729536      -0.10978746        0
H        4.28776260      -0.52797071      -1.70883778        0
H        2.08065517      -1.63002978      -1.70596855        0
H       -0.73071153       0.86770800      -1.82125742        0
H       -2.82188123       2.17482074      -1.90276175        0
H       -4.62044641       1.76136898      -0.24318929        0
H       -4.31196613       0.03407306       1.51171551        0
H       -2.22289269      -1.27401848       1.61430476        0
O       -6.28872993       0.14158801       1.10951439        1
H       -5.65465128       0.84336625       0.96226154        1
H       -5.78934414      -0.66444299       0.97851936        1
O       -8.91263124       0.21690022       1.61850299        2
H       -8.31637832       0.95704552       1.50492826        2
H       -8.35901878      -0.55624896       1.50902498        2
O      -11.52334320       0.23502881       2.25902794        3
H      -10.94924437       0.98801062       2.11881106        3
H      -10.95945376      -0.52585511       2.12004516        3
35
Properties=species:S:1:pos:R:3:fragment_id:I:1 config_id=canonical_p3__mobley_4479135__cluster_3water__cooperative molecule_id=mobley_4479135 smiles=C=C(c1ccccc1)c1ccccc1 split=canonical_prospective_3 chemical_role=stratum_1 category=cluster_3water motif=cooperative regime=cooperative conformer_index=0 n_solute_atoms=26 n_waters=3 pbc="F F F"
C       -0.11856437      -2.42108514      -0.00341706        0
C       -0.05275074      -1.07713706      -0.06222335        0
C        1.28934338      -0.44154453      -0.07695036        0
C        1.57198867       0.60484425       0.81239218        0
C        2.82128591       1.22985451       0.80227792        0
C        3.79929898       0.82000417      -0.10167133        0
C        3.52868441      -0.21180413      -0.99825100        0
C        2.27954804      -0.83744416      -0.98851919        0
C       -1.32638740      -0.31483379      -0.10866345        0
C       -1.50941839       0.67265691      -1.08698254        0
C       -2.69175143       1.41501815      -1.13669898        0
C       -3.70121674       1.18281711      -0.20467148        0
C       -3.52870561       0.21158711       0.77953633        0
C       -2.34659245      -0.53135006       0.82968739        0
H       -1.06622171      -2.95135825      -0.00846872        0
H        0.77287763      -3.03877836       0.05186584        0
H        0.81916420       0.93812836       1.52356466        0
H        3.02817148       2.03717773       1.49978438        0
H        4.77072633       1.30729536      -0.10978746        0
H        4.28776260      -0.52797071      -1.70883778        0
H        2.08065517      -1.63002978      -1.70596855        0
H       -0.73071153       0.86770800      -1.82125742        0
H       -2.82188123       2.17482074      -1.90276175        0
H       -4.62044641       1.76136898      -0.24318929        0
H       -4.31196613       0.03407306       1.51171551        0
H       -2.22289269      -1.27401848       1.61430476        0
O       -6.08008680       3.01970721      -1.71474876        1
H       -5.23656272       3.45727116      -1.59969767        1
H       -5.87697270       2.08646363      -1.65124345        1
O       -8.73341439       4.05165215      -2.34008050        2
H       -7.93210268       4.55151316      -2.18429108        2
H       -8.46807721       3.13694492      -2.24448393        2
O      -11.40763890       5.05183048      -3.06818824        3
H      -10.61895705       5.56418518      -2.89012803        3
H      -11.13284161       4.14172727      -2.95669633        3
35
Properties=species:S:1:pos:R:3:fragment_id:I:1 config_id=canonical_p3__mobley_4479135__cluster_3water__equilibrium molecule_id=mobley_4479135 smiles=C=C(c1ccccc1)c1ccccc1 split=canonical_prospective_3 chemical_role=stratum_1 category=cluster_3water motif=equilibrium regime=equilibrium conformer_index=0 n_solute_atoms=26 n_waters=3 pbc="F F F"
C       -0.11856437      -2.42108514      -0.00341706        0
C       -0.05275074      -1.07713706      -0.06222335        0
C        1.28934338      -0.44154453      -0.07695036        0
C        1.57198867       0.60484425       0.81239218        0
C        2.82128591       1.22985451       0.80227792        0
C        3.79929898       0.82000417      -0.10167133        0
C        3.52868441      -0.21180413      -0.99825100        0
C        2.27954804      -0.83744416      -0.98851919        0
C       -1.32638740      -0.31483379      -0.10866345        0
C       -1.50941839       0.67265691      -1.08698254        0
C       -2.69175143       1.41501815      -1.13669898        0
C       -3.70121674       1.18281711      -0.20467148        0
C       -3.52870561       0.21158711       0.77953633        0
C       -2.34659245      -0.53135006       0.82968739        0
H       -1.06622171      -2.95135825      -0.00846872        0
H        0.77287763      -3.03877836       0.05186584        0
H        0.81916420       0.93812836       1.52356466        0
H        3.02817148       2.03717773       1.49978438        0
H        4.77072633       1.30729536      -0.10978746        0
H        4.28776260      -0.52797071      -1.70883778        0
H        2.08065517      -1.63002978      -1.70596855        0
H       -0.73071153       0.86770800      -1.82125742        0
H       -2.82188123       2.17482074      -1.90276175        0
H       -4.62044641       1.76136898      -0.24318929        0
H       -4.31196613       0.03407306       1.51171551        0
H       -2.22289269      -1.27401848       1.61430476        0
O       -5.36548767       3.28987646      -2.26752938        1
H       -5.37757265       3.06452056      -3.19774468        1
H       -4.69212765       3.96610593      -2.19315314        1
O       -6.50499586      -1.49230982       1.86653128        2
H       -7.19536803      -1.98497142       2.31026843        2
H       -6.96963448      -0.80514221       1.38888763        2
O        6.97805079      -0.11026915      -1.93345375        3
H        7.75098716      -0.54499622      -2.29375027        3
H        6.43138085       0.07834523      -2.69621743        3
35
Properties=species:S:1:pos:R:3:fragment_id:I:1 config_id=canonical_p3__mobley_4479135__cluster_3water__orientation molecule_id=mobley_4479135 smiles=C=C(c1ccccc1)c1ccccc1 split=canonical_prospective_3 chemical_role=stratum_1 category=cluster_3water motif=orientation regime=orientation conformer_index=0 n_solute_atoms=26 n_waters=3 pbc="F F F"
C       -0.11856437      -2.42108514      -0.00341706        0
C       -0.05275074      -1.07713706      -0.06222335        0
C        1.28934338      -0.44154453      -0.07695036        0
C        1.57198867       0.60484425       0.81239218        0
C        2.82128591       1.22985451       0.80227792        0
C        3.79929898       0.82000417      -0.10167133        0
C        3.52868441      -0.21180413      -0.99825100        0
C        2.27954804      -0.83744416      -0.98851919        0
C       -1.32638740      -0.31483379      -0.10866345        0
C       -1.50941839       0.67265691      -1.08698254        0
C       -2.69175143       1.41501815      -1.13669898        0
C       -3.70121674       1.18281711      -0.20467148        0
C       -3.52870561       0.21158711       0.77953633        0
C       -2.34659245      -0.53135006       0.82968739        0
H       -1.06622171      -2.95135825      -0.00846872        0
H        0.77287763      -3.03877836       0.05186584        0
H        0.81916420       0.93812836       1.52356466        0
H        3.02817148       2.03717773       1.49978438        0
H        4.77072633       1.30729536      -0.10978746        0
H        4.28776260      -0.52797071      -1.70883778        0
H        2.08065517      -1.63002978      -1.70596855        0
H       -0.73071153       0.86770800      -1.82125742        0
H       -2.82188123       2.17482074      -1.90276175        0
H       -4.62044641       1.76136898      -0.24318929        0
H       -4.31196613       0.03407306       1.51171551        0
H       -2.22289269      -1.27401848       1.61430476        0
O       -5.36548767       3.28987646      -2.26752938        1
H       -5.37774436       2.96895181      -3.16924384        1
H       -5.47838078       2.50471506      -1.73179758        1
O       -6.50499586      -1.49230982       1.86653128        2
H       -6.57119842      -2.33999421       2.30616777        2
H       -6.09006914      -1.68927296       1.02672584        2
O        6.97805079      -0.11026915      -1.93345375        3
H        7.79101491      -0.27452663      -2.41130378        3
H        6.54736928      -0.96409719      -1.89194537        3
39
Properties=species:S:1:pos:R:3:fragment_id:I:1 config_id=canonical_p3__mobley_4934872__cluster_3water__compressed molecule_id=mobley_4934872 smiles=CCOC(OCC)Oc1ccccc1 split=canonical_prospective_3 chemical_role=stratum_2 category=cluster_3water motif=compressed regime=compressed conformer_index=0 n_solute_atoms=30 n_waters=3 pbc="F F F"
C       -1.86393192      -1.92720502       2.92036321        0
C       -1.90035938      -1.11476170       1.64058678        0
O       -0.65449871      -0.44152518       1.50489840        0
C       -0.56821565       0.29181088       0.28043093        0
O       -1.54035554       1.34401616       0.29447311        0
C       -1.61249195       2.01939811      -0.95637745        0
C       -2.70542461       3.06673573      -0.86840123        0
O        0.74160296       0.84982695       0.13239079        0
C        1.71723122       0.03133584      -0.36381766        0
C        1.71286079      -1.36339969      -0.32118226        0
C        2.78041565      -2.08549177      -0.86333875        0
C        3.85898450      -1.41740871      -1.44069023        0
C        3.87694328      -0.02512620      -1.46857691        0
C        2.81123974       0.69474061      -0.92619058        0
H       -1.04180115      -2.65014571       2.89454154        0
H       -2.80389176      -2.46649789       3.06716926        0
H       -1.69018406      -1.27766472       3.78466782        0
H       -2.06093932      -1.78149776       0.78617861        0
H       -2.71995677      -0.39022176       1.69063358        0
H       -0.79833645      -0.37546012      -0.56283023        0
H       -0.65723109       2.50577061      -1.18039551        0
H       -1.84906360       1.30632521      -1.75375523        0
H       -2.49153345       3.78072350      -0.06615624        0
H       -2.79948477       3.61274808      -1.81124196        0
H       -3.66780974       2.60074681      -0.63213771        0
H        0.90827988      -1.91776619       0.15095597        0
H        2.77484092      -3.17185646      -0.82297117        0
H        4.68976247      -1.98127050      -1.85681976        0
H        4.72092887       0.50144291      -1.90590288        0
H        2.83241964       1.78167799      -0.94267465        0
O        3.98240386       3.55008649      -1.09286336        1
H        4.01546688       2.85606369      -0.43447819        1
H        3.08484010       3.52380081      -1.42440552        1
O        6.19435308       5.43064067      -1.49139191        2
H        6.23787561       4.54042256      -1.14232265        2
H        5.26638974       5.56892522      -1.68111080        2
O        8.24070744       7.14457473      -2.24037899        3
H        8.27621485       6.43461567      -1.59934139        3
H        7.34029648       7.13012960      -2.56485286        3
39
Properties=species:S:1:pos:R:3:fragment_id:I:1 config_id=canonical_p3__mobley_4934872__cluster_3water__cooperative molecule_id=mobley_4934872 smiles=CCOC(OCC)Oc1ccccc1 split=canonical_prospective_3 chemical_role=stratum_2 category=cluster_3water motif=cooperative regime=cooperative conformer_index=0 n_solute_atoms=30 n_waters=3 pbc="F F F"
C       -1.86393192      -1.92720502       2.92036321        0
C       -1.90035938      -1.11476170       1.64058678        0
O       -0.65449871      -0.44152518       1.50489840        0
C       -0.56821565       0.29181088       0.28043093        0
O       -1.54035554       1.34401616       0.29447311        0
C       -1.61249195       2.01939811      -0.95637745        0
C       -2.70542461       3.06673573      -0.86840123        0
O        0.74160296       0.84982695       0.13239079        0
C        1.71723122       0.03133584      -0.36381766        0
C        1.71286079      -1.36339969      -0.32118226        0
C        2.78041565      -2.08549177      -0.86333875        0
C        3.85898450      -1.41740871      -1.44069023        0
C        3.87694328      -0.02512620      -1.46857691        0
C        2.81123974       0.69474061      -0.92619058        0
H       -1.04180115      -2.65014571       2.89454154        0
H       -2.80389176      -2.46649789       3.06716926        0
H       -1.69018406      -1.27766472       3.78466782        0
H       -2.06093932      -1.78149776       0.78617861        0
H       -2.71995677      -0.39022176       1.69063358        0
H       -0.79833645      -0.37546012      -0.56283023        0
H       -0.65723109       2.50577061      -1.18039551        0
H       -1.84906360       1.30632521      -1.75375523        0
H       -2.49153345       3.78072350      -0.06615624        0
H       -2.79948477       3.61274808      -1.81124196        0
H       -3.66780974       2.60074681      -0.63213771        0
H        0.90827988      -1.91776619       0.15095597        0
H        2.77484092      -3.17185646      -0.82297117        0
H        4.68976247      -1.98127050      -1.85681976        0
H        4.72092887       0.50144291      -1.90590288        0
H        2.83241964       1.78167799      -0.94267465        0
O        7.03216110       2.10044866      -2.47073156        1
H        6.73298658       2.03221595      -1.56405039        1
H        6.28109601       1.81891643      -2.99310372        1
O        9.67287867       2.63117363      -3.47103121        2
H        9.27423226       2.96081194      -2.66564219        2
H        8.99459756       2.08509706      -3.86848179        2
O       12.12773991       3.40506497      -4.37935525        3
H       11.81542822       3.39120269      -3.47464475        3
H       11.38619793       3.08670146      -4.89412900        3
39
Properties=species:S:1:pos:R:3:fragment_id:I:1 config_id=canonical_p3__mobley_4934872__cluster_3water__equilibrium molecule_id=mobley_4934872 smiles=CCOC(OCC)Oc1ccccc1 split=canonical_prospective_3 chemical_role=stratum_2 category=cluster_3water motif=equilibrium regime=equilibrium conformer_index=0 n_solute_atoms=30 n_waters=3 pbc="F F F"
C       -1.86393192      -1.92720502       2.92036321        0
C       -1.90035938      -1.11476170       1.64058678        0
O       -0.65449871      -0.44152518       1.50489840        0
C       -0.56821565       0.29181088       0.28043093        0
O       -1.54035554       1.34401616       0.29447311        0
C       -1.61249195       2.01939811      -0.95637745        0
C       -2.70542461       3.06673573      -0.86840123        0
O        0.74160296       0.84982695       0.13239079        0
C        1.71723122       0.03133584      -0.36381766        0
C        1.71286079      -1.36339969      -0.32118226        0
C        2.78041565      -2.08549177      -0.86333875        0
C        3.85898450      -1.41740871      -1.44069023        0
C        3.87694328      -0.02512620      -1.46857691        0
C        2.81123974       0.69474061      -0.92619058        0
H       -1.04180115      -2.65014571       2.89454154        0
H       -2.80389176      -2.46649789       3.06716926        0
H       -1.69018406      -1.27766472       3.78466782        0
H       -2.06093932      -1.78149776       0.78617861        0
H       -2.71995677      -0.39022176       1.69063358        0
H       -0.79833645      -0.37546012      -0.56283023        0
H       -0.65723109       2.50577061      -1.18039551        0
H       -1.84906360       1.30632521      -1.75375523        0
H       -2.49153345       3.78072350      -0.06615624        0
H       -2.79948477       3.61274808      -1.81124196        0
H       -3.66780974       2.60074681      -0.63213771        0
H        0.90827988      -1.91776619       0.15095597        0
H        2.77484092      -3.17185646      -0.82297117        0
H        4.68976247      -1.98127050      -1.85681976        0
H        4.72092887       0.50144291      -1.90590288        0
H        2.83241964       1.78167799      -0.94267465        0
O       -5.01955221       4.04150643       0.79350518        1
H       -4.09721075       3.87800457       0.99044480        1
H       -5.44416075       4.08327794       1.65035672        1
O        6.37885145       1.94523429      -2.39200484        2
H        6.59506032       1.67708159      -3.28507801        2
H        6.58887140       2.87869639      -2.36422039        2
O       -3.81634471       5.95551016      -2.14943499        3
H       -4.21221992       6.66247135      -2.65906282        3
H       -3.79564638       6.28882596      -1.25238204        3
39
Properties=species:S:1:pos:R:3:fragment_id:I:1 config_id=canonical_p3__mobley_4934872__cluster_3water__orientation molecule_id=mobley_4934872 smiles=CCOC(OCC)Oc1ccccc1 split=canonical_prospective_3 chemical_role=stratum_2 category=cluster_3water motif=orientation regime=orientation conformer_index=0 n_solute_atoms=30 n_waters=3 pbc="F F F"
C       -1.86393192      -1.92720502       2.92036321        0
C       -1.90035938      -1.11476170       1.64058678        0
O       -0.65449871      -0.44152518       1.50489840        0
C       -0.56821565       0.29181088       0.28043093        0
O       -1.54035554       1.34401616       0.29447311        0
C       -1.61249195       2.01939811      -0.95637745        0
C       -2.70542461       3.06673573      -0.86840123        0
O        0.74160296       0.84982695       0.13239079        0
C        1.71723122       0.03133584      -0.36381766        0
C        1.71286079      -1.36339969      -0.32118226        0
C        2.78041565      -2.08549177      -0.86333875        0
C        3.85898450      -1.41740871      -1.44069023        0
C        3.87694328      -0.02512620      -1.46857691        0
C        2.81123974       0.69474061      -0.92619058        0
H       -1.04180115      -2.65014571       2.89454154        0
H       -2.80389176      -2.46649789       3.06716926        0
H       -1.69018406      -1.27766472       3.78466782        0
H       -2.06093932      -1.78149776       0.78617861        0
H       -2.71995677      -0.39022176       1.69063358        0
H       -0.79833645      -0.37546012      -0.56283023        0
H       -0.65723109       2.50577061      -1.18039551        0
H       -1.84906360       1.30632521      -1.75375523        0
H       -2.49153345       3.78072350      -0.06615624        0
H       -2.79948477       3.61274808      -1.81124196        0
H       -3.66780974       2.60074681      -0.63213771        0
H        0.90827988      -1.91776619       0.15095597        0
H        2.77484092      -3.17185646      -0.82297117        0
H        4.68976247      -1.98127050      -1.85681976        0
H        4.72092887       0.50144291      -1.90590288        0
H        2.83241964       1.78167799      -0.94267465        0
O       -5.01955221       4.04150643       0.79350518        1
H       -4.15490902       3.96075251       1.19612509        1
H       -5.50799810       3.28598799       1.12037570        1
O        6.37885145       1.94523429      -2.39200484        2
H        5.68416166       2.28335443      -1.82692723        2
H        6.38999140       2.54086019      -3.14122946        2
O       -3.81634471       5.95551016      -2.14943499        3
H       -4.38970845       6.57776026      -1.70189654        3
H       -2.94751517       6.35471293      -2.10466649        3
35
Properties=species:S:1:pos:R:3:fragment_id:I:1 config_id=canonical_p3__mobley_5200358__cluster_3water__compressed molecule_id=mobley_5200358 smiles=CNC(=O)O/N=C\C(C)(C)SC split=canonical_prospective_3 chemical_role=stratum_4 category=cluster_3water motif=compressed regime=compressed conformer_index=0 n_solute_atoms=26 n_waters=3 pbc="F F F"
C        4.42748841       0.84298326      -0.63030292        0
N        3.06136603       0.40438634      -0.57996434        0
C        2.32792829       0.44704872       0.57649233        0
O        2.76348584       0.84562181       1.64936703        0
O        1.06039197      -0.01329612       0.32655797        0
N        0.26318080       0.05440525       1.47862552        0
C       -0.96691986      -0.29898340       1.24641934        0
C       -1.61819901      -0.76993100      -0.05245755        0
C       -0.99445665      -2.09545499      -0.50741876        0
C       -3.11574269      -1.00211646       0.20697923        0
S       -1.44243100       0.46721486      -1.41309497        0
C       -1.92717232       1.99799040      -0.57069973        0
H        4.45062476       1.93414249      -0.56760411        0
H        4.86630997       0.51598601      -1.57562732        0
H        4.98694406       0.41912562       0.20807753        0
H        2.58295218       0.09434347      -1.41411244        0
H       -1.63085102      -0.26409078       2.12843405        0
H       -1.02917878      -2.83653474       0.30043141        0
H       -1.52986687      -2.52082251      -1.36464872        0
H        0.05747524      -1.99280951      -0.79353700        0
H       -3.25965601      -1.79135397       0.95558753        0
H       -3.61239660      -0.10977763       0.60320252        0
H       -3.64514381      -1.31576670      -0.70030412        0
H       -2.94317880       1.92800706      -0.17690001        0
H       -1.22990688       2.24369153       0.23338297        0
H       -1.90304726       2.81599099      -1.29632397        0
O        4.45651679       1.18462015       2.63678429        1
H        4.08683434       1.69396917       1.91558369        1
H        3.82881505       0.47556327       2.77628591        1
O        6.58755254       1.97968174       4.05339352        2
H        6.34620470       2.23727460       3.16365818        2
H        5.89701547       1.37441480       4.32365697        2
O        8.86081131       2.83922138       5.26322092        3
H        8.60987917       2.94414639       4.34547605        3
H        8.13056114       2.36330249       5.65878096        3
35
Properties=species:S:1:pos:R:3:fragment_id:I:1 config_id=canonical_p3__mobley_5200358__cluster_3water__cooperative molecule_id=mobley_5200358 smiles=CNC(=O)O/N=C\C(C)(C)SC split=canonical_prospective_3 chemical_role=stratum_4 category=cluster_3water motif=cooperative regime=cooperative conformer_index=0 n_solute_atoms=26 n_waters=3 pbc="F F F"
C        4.42748841       0.84298326      -0.63030292        0
N        3.06136603       0.40438634      -0.57996434        0
C        2.32792829       0.44704872       0.57649233        0
O        2.76348584       0.84562181       1.64936703        0
O        1.06039197      -0.01329612       0.32655797        0
N        0.26318080       0.05440525       1.47862552        0
C       -0.96691986      -0.29898340       1.24641934        0
C       -1.61819901      -0.76993100      -0.05245755        0
C       -0.99445665      -2.09545499      -0.50741876        0
C       -3.11574269      -1.00211646       0.20697923        0
S       -1.44243100       0.46721486      -1.41309497        0
C       -1.92717232       1.99799040      -0.57069973        0
H        4.45062476       1.93414249      -0.56760411        0
H        4.86630997       0.51598601      -1.57562732        0
H        4.98694406       0.41912562       0.20807753        0
H        2.58295218       0.09434347      -1.41411244        0
H       -1.63085102      -0.26409078       2.12843405        0
H       -1.02917878      -2.83653474       0.30043141        0
H       -1.52986687      -2.52082251      -1.36464872        0
H        0.05747524      -1.99280951      -0.79353700        0
H       -3.25965601      -1.79135397       0.95558753        0
H       -3.61239660      -0.10977763       0.60320252        0
H       -3.64514381      -1.31576670      -0.70030412        0
H       -2.94317880       1.92800706      -0.17690001        0
H       -1.22990688       2.24369153       0.23338297        0
H       -1.90304726       2.81599099      -1.29632397        0
O        7.37059871       1.05664224      -0.66609152        1
H        6.84110074       0.30057721      -0.41265629        1
H        6.73149365       1.72787098      -0.90531639        1
O       10.03168111       1.34548915      -0.98963278        2
H        9.53452200       1.37258948      -0.17211812        2
H        9.37233587       1.19285618      -1.66653667        2
O       12.76908998       1.72109242      -1.46344297        3
H       12.29841429       1.82219404      -0.63611311        3
H       12.09557896       1.46299553      -2.09272886        3
35
Properties=species:S:1:pos:R:3:fragment_id:I:1 config_id=canonical_p3__mobley_5200358__cluster_3water__equilibrium molecule_id=mobley_5200358 smiles=CNC(=O)O/N=C\C(C)(C)SC split=canonical_prospective_3 chemical_role=stratum_4 category=cluster_3water motif=equilibrium regime=equilibrium conformer_index=0 n_solute_atoms=26 n_waters=3 pbc="F F F"
C        4.42748841       0.84298326      -0.63030292        0
N        3.06136603       0.40438634      -0.57996434        0
C        2.32792829       0.44704872       0.57649233        0
O        2.76348584       0.84562181       1.64936703        0
O        1.06039197      -0.01329612       0.32655797        0
N        0.26318080       0.05440525       1.47862552        0
C       -0.96691986      -0.29898340       1.24641934        0
C       -1.61819901      -0.76993100      -0.05245755        0
C       -0.99445665      -2.09545499      -0.50741876        0
C       -3.11574269      -1.00211646       0.20697923        0
S       -1.44243100       0.46721486      -1.41309497        0
C       -1.92717232       1.99799040      -0.57069973        0
H        4.45062476       1.93414249      -0.56760411        0
H        4.86630997       0.51598601      -1.57562732        0
H        4.98694406       0.41912562       0.20807753        0
H        2.58295218       0.09434347      -1.41411244        0
H       -1.63085102      -0.26409078       2.12843405        0
H       -1.02917878      -2.83653474       0.30043141        0
H       -1.52986687      -2.52082251      -1.36464872        0
H        0.05747524      -1.99280951      -0.79353700        0
H       -3.25965601      -1.79135397       0.95558753        0
H       -3.61239660      -0.10977763       0.60320252        0
H       -3.64514381      -1.31576670      -0.70030412        0
H       -2.94317880       1.92800706      -0.17690001        0
H       -1.22990688       2.24369153       0.23338297        0
H       -1.90304726       2.81599099      -1.29632397        0
O       -4.06159520      -3.04829329      -1.78385417        1
H       -4.27042255      -3.91863404      -2.12316223        1
H       -3.53709206      -3.21548286      -1.00079865        1
O        3.69798402      -2.34378980       0.79268148        2
H        3.63191856      -3.27320179       0.57345431        2
H        3.63929154      -1.89367577      -0.05004291        2
O        6.66757762       1.50753166       2.29944818        3
H        5.89471185       1.36051323       1.75419968        3
H        7.22438935       0.74612660       2.13679869        3
35
Properties=species:S:1:pos:R:3:fragment_id:I:1 config_id=canonical_p3__mobley_5200358__cluster_3water__orientation molecule_id=mobley_5200358 smiles=CNC(=O)O/N=C\C(C)(C)SC split=canonical_prospective_3 chemical_role=stratum_4 category=cluster_3water motif=orientation regime=orientation conformer_index=0 n_solute_atoms=26 n_waters=3 pbc="F F F"
C        4.42748841       0.84298326      -0.63030292        0
N        3.06136603       0.40438634      -0.57996434        0
C        2.32792829       0.44704872       0.57649233        0
O        2.76348584       0.84562181       1.64936703        0
O        1.06039197      -0.01329612       0.32655797        0
N        0.26318080       0.05440525       1.47862552        0
C       -0.96691986      -0.29898340       1.24641934        0
C       -1.61819901      -0.76993100      -0.05245755        0
C       -0.99445665      -2.09545499      -0.50741876        0
C       -3.11574269      -1.00211646       0.20697923        0
S       -1.44243100       0.46721486      -1.41309497        0
C       -1.92717232       1.99799040      -0.57069973        0
H        4.45062476       1.93414249      -0.56760411        0
H        4.86630997       0.51598601      -1.57562732        0
H        4.98694406       0.41912562       0.20807753        0
H        2.58295218       0.09434347      -1.41411244        0
H       -1.63085102      -0.26409078       2.12843405        0
H       -1.02917878      -2.83653474       0.30043141        0
H       -1.52986687      -2.52082251      -1.36464872        0
H        0.05747524      -1.99280951      -0.79353700        0
H       -3.25965601      -1.79135397       0.95558753        0
H       -3.61239660      -0.10977763       0.60320252        0
H       -3.64514381      -1.31576670      -0.70030412        0
H       -2.94317880       1.92800706      -0.17690001        0
H       -1.22990688       2.24369153       0.23338297        0
H       -1.90304726       2.81599099      -1.29632397        0
O       -4.06159520      -3.04829329      -1.78385417        1
H       -3.40808080      -2.41018994      -2.07016675        1
H       -4.84969628      -2.52922703      -1.62354592        1
O        3.69798402      -2.34378980       0.79268148        2
H        3.25402329      -2.07586101       1.59725893        2
H        4.49994236      -2.77197160       1.09227287        2
O        6.66757762       1.50753166       2.29944818        3
H        5.85514707       1.79172206       2.71828497        3
H        7.12203766       1.00353322       2.97449151        3
21
Properties=species:S:1:pos:R:3:fragment_id:I:1 config_id=canonical_p3__mobley_6239320__cluster_3water__compressed molecule_id=mobley_6239320 smiles="O=c1[nH]c(=O)[nH]c(=O)[nH]1" split=canonical_prospective_3 chemical_role=stratum_3 category=cluster_3water motif=compressed regime=compressed conformer_index=0 n_solute_atoms=12 n_waters=3 pbc="F F F"
O       -1.50647244      -2.13478901      -0.00698838        0
C       -0.79934881      -1.13273937      -0.00368043        0
N        0.55825686      -1.20871425      -0.00181226        0
C        1.38065905      -0.12588899       0.00178214        0
O        2.60202461      -0.23725375       0.00330849        0
N        0.76764860       1.08781772       0.00356248        0
C       -0.58131025       1.25862834       0.00191747        0
O       -1.09555196       2.37204247       0.00356450        0
N       -1.32590557       0.12089650      -0.00168081        0
H        0.98120422      -2.12446191      -0.00321819        0
H        1.34923553       1.91197167       0.00623194        0
H       -2.33043984       0.21249059      -0.00298695        0
O       -2.78487623      -2.70748620       1.63678664        1
H       -2.79438982      -1.76916665       1.44784818        1
H       -2.00467409      -3.03456294       1.18897278        1
O       -4.68773453      -4.52697167       2.73301119        2
H       -4.77974788      -3.58103279       2.61914719        2
H       -3.81387989      -4.72532527       2.39646140        2
O       -6.75422615      -6.27084928       3.74058750        3
H       -6.79210658      -5.32092039       3.62908849        3
H       -5.87720002      -6.51263719       3.44293734        3
21
Properties=species:S:1:pos:R:3:fragment_id:I:1 config_id=canonical_p3__mobley_6239320__cluster_3water__cooperative molecule_id=mobley_6239320 smiles="O=c1[nH]c(=O)[nH]c(=O)[nH]1" split=canonical_prospective_3 chemical_role=stratum_3 category=cluster_3water motif=cooperative regime=cooperative conformer_index=0 n_solute_atoms=12 n_waters=3 pbc="F F F"
O       -1.50647244      -2.13478901      -0.00698838        0
C       -0.79934881      -1.13273937      -0.00368043        0
N        0.55825686      -1.20871425      -0.00181226        0
C        1.38065905      -0.12588899       0.00178214        0
O        2.60202461      -0.23725375       0.00330849        0
N        0.76764860       1.08781772       0.00356248        0
C       -0.58131025       1.25862834       0.00191747        0
O       -1.09555196       2.37204247       0.00356450        0
N       -1.32590557       0.12089650      -0.00168081        0
H        0.98120422      -2.12446191      -0.00321819        0
H        1.34923553       1.91197167       0.00623194        0
H       -2.33043984       0.21249059      -0.00298695        0
O        2.02048992      -4.14566581      -0.23889712        1
H        1.08419703      -3.95196473      -0.28436530        1
H        2.43589650      -3.29314664      -0.10897300        1
O        2.93397441      -6.73245367      -0.47996211        2
H        2.02862113      -6.42453117      -0.52180740        2
H        3.45064849      -5.93972188      -0.33554589        2
O        4.23016480      -9.21673900      -0.94826877        3
H        3.30094055      -9.01194577      -1.05235458        3
H        4.62477184      -8.39688205      -0.65102862        3
21
Properties=species:S:1:pos:R:3:fragment_id:I:1 config_id=canonical_p3__mobley_6239320__cluster_3water__equilibrium molecule_id=mobley_6239320 smiles="O=c1[nH]c(=O)[nH]c(=O)[nH]1" split=canonical_prospective_3 chemical_role=stratum_3 category=cluster_3water motif=equilibrium regime=equilibrium conformer_index=0 n_solute_atoms=12 n_waters=3 pbc="F F F"
O       -1.50647244      -2.13478901      -0.00698838        0
C       -0.79934881      -1.13273937      -0.00368043        0
N        0.55825686      -1.20871425      -0.00181226        0
C        1.38065905      -0.12588899       0.00178214        0
O        2.60202461      -0.23725375       0.00330849        0
N        0.76764860       1.08781772       0.00356248        0
C       -0.58131025       1.25862834       0.00191747        0
O       -1.09555196       2.37204247       0.00356450        0
N       -1.32590557       0.12089650      -0.00168081        0
H        0.98120422      -2.12446191      -0.00321819        0
H        1.34923553       1.91197167       0.00623194        0
H       -2.33043984       0.21249059      -0.00298695        0
O        2.46182506       5.21363349       0.13291637        1
H        2.62008018       4.27023793       0.09839124        1
H        1.51088552       5.30006022       0.06601162        1
O        4.40277011      -0.59511266       1.00085976        2
H        3.73809240      -1.27462887       1.11352340        2
H        4.69620185      -0.39664391       1.89009528        2
O       -5.40572498       0.17521277      -1.21775299        3
H       -5.46298303       1.01886698      -0.76919872        3
H       -4.48183778      -0.06732217      -1.15577643        3
21
Properties=species:S:1:pos:R:3:fragment_id:I:1 config_id=canonical_p3__mobley_6239320__cluster_3water__orientation molecule_id=mobley_6239320 smiles="O=c1[nH]c(=O)[nH]c(=O)[nH]1" split=canonical_prospective_3 chemical_role=stratum_3 category=cluster_3water motif=orientation regime=orientation conformer_index=0 n_solute_atoms=12 n_waters=3 pbc="F F F"
O       -1.50647244      -2.13478901      -0.00698838        0
C       -0.79934881      -1.13273937      -0.00368043        0
N        0.55825686      -1.20871425      -0.00181226        0
C        1.38065905      -0.12588899       0.00178214        0
O        2.60202461      -0.23725375       0.00330849        0
N        0.76764860       1.08781772       0.00356248        0
C       -0.58131025       1.25862834       0.00191747        0
O       -1.09555196       2.37204247       0.00356450        0
N       -1.32590557       0.12089650      -0.00168081        0
H        0.98120422      -2.12446191      -0.00321819        0
H        1.34923553       1.91197167       0.00623194        0
H       -2.33043984       0.21249059      -0.00298695        0
O        2.46182506       5.21363349       0.13291637        1
H        3.14826042       5.77048203      -0.23444997        1
H        2.68852372       4.33013576      -0.15737886        1
O        4.40277011      -0.59511266       1.00085976        2
H        4.13433389       0.28327135       0.73138735        2
H        5.21010342      -0.45787235       1.49645018        2
O       -5.40572498       0.17521277      -1.21775299        3
H       -5.67186556      -0.10934861      -2.09206750        3
H       -5.68481192       1.08944938      -1.16761579        3
14
Properties=species:S:1:pos:R:3:fragment_id:I:1 config_id=canonical_p3__mobley_7578802__cluster_3water__compressed molecule_id=mobley_7578802 smiles=BrC(Br)Br split=canonical_prospective_3 chemical_role=stratum_5 category=cluster_3water motif=compressed regime=compressed conformer_index=0 n_solute_atoms=5 n_waters=3 pbc="F F F"
Br      -1.32891099      -1.29347084      -0.47503771        0
C       -0.00159764      -0.00138154       0.11514586        0
Br      -0.45129298       1.81105540      -0.42561125        0
Br       1.79855791      -0.50171317      -0.42214376        0
H       -0.01675630      -0.01448985       1.20764686        0
O       -0.80622781       3.61999714      -1.08648616        1
H       -0.00082743       3.28897707      -0.68900938        1
H       -1.39925189       2.86863164      -1.08852651        1
O       -1.77848260       6.23228829      -1.67333389        2
H       -0.88431527       5.97730266      -1.44600382        2
H       -2.27269593       5.41266229      -1.65925388        2
O       -2.22069880       8.84554315      -2.74298730        3
H       -1.43794804       8.51878762      -2.29940651        3
H       -2.82215053       8.10092096      -2.74803343        3
14
Properties=species:S:1:pos:R:3:fragment_id:I:1 config_id=canonical_p3__mobley_7578802__cluster_3water__cooperative molecule_id=mobley_7578802 smiles=BrC(Br)Br split=canonical_prospective_3 chemical_role=stratum_5 category=cluster_3water motif=cooperative regime=cooperative conformer_index=0 n_solute_atoms=5 n_waters=3 pbc="F F F"
Br      -1.32891099      -1.29347084      -0.47503771        0
C       -0.00159764      -0.00138154       0.11514586        0
Br      -0.45129298       1.81105540      -0.42561125        0
Br       1.79855791      -0.50171317      -0.42214376        0
H       -0.01675630      -0.01448985       1.20764686        0
O       -2.39674560      -3.34663733      -1.29189671        1
H       -2.77508701      -2.46870074      -1.24376193        1
H       -1.50856040      -3.24427777      -0.95001746        1
O       -3.90795540      -5.48944044      -1.86663793        2
H       -4.18236331      -4.57341012      -1.82396960        2
H       -2.97387647      -5.47009760      -1.65842109        2
O       -5.51280454      -7.66911917      -2.83957944        3
H       -5.75952900      -6.74719921      -2.76594207        3
H       -4.61228902      -7.70307126      -2.51685528        3
14
Properties=species:S:1:pos:R:3:fragment_id:I:1 config_id=canonical_p3__mobley_7578802__cluster_3water__equilibrium molecule_id=mobley_7578802 smiles=BrC(Br)Br split=canonical_prospective_3 chemical_role=stratum_5 category=cluster_3water motif=equilibrium regime=equilibrium conformer_index=0 n_solute_atoms=5 n_waters=3 pbc="F F F"
Br      -1.32891099      -1.29347084      -0.47503771        0
C       -0.00159764      -0.00138154       0.11514586        0
Br      -0.45129298       1.81105540      -0.42561125        0
Br       1.79855791      -0.50171317      -0.42214376        0
H       -0.01675630      -0.01448985       1.20764686        0
O       -3.12150038      -3.59442207      -0.44762113        1
H       -2.53454414      -4.26240524      -0.80189884        1
H       -3.29828844      -3.01345131      -1.18752031        1
O        4.65423278      -1.18588503      -0.85961514        2
H        3.96917731      -1.08905698      -1.52109467        2
H        4.61658384      -2.10877538      -0.60844229        2
O       -1.22422429       3.98997622      -0.76744884        3
H       -0.45213593       3.98942020      -1.33323246        3
H       -1.90730606       4.40515569      -1.29400097        3
14
Properties=species:S:1:pos:R:3:fragment_id:I:1 config_id=canonical_p3__mobley_7578802__cluster_3water__orientation molecule_id=mobley_7578802 smiles=BrC(Br)Br split=canonical_prospective_3 chemical_role=stratum_5 category=cluster_3water motif=orientation regime=orientation conformer_index=0 n_solute_atoms=5 n_waters=3 pbc="F F F"
Br      -1.32891099      -1.29347084      -0.47503771        0
C       -0.00159764      -0.00138154       0.11514586        0
Br      -0.45129298       1.81105540      -0.42561125        0
Br       1.79855791      -0.50171317      -0.42214376        0
H       -0.01675630      -0.01448985       1.20764686        0
O       -3.12150038      -3.59442207      -0.44762113        1
H       -3.86498682      -3.32219835       0.09029522        1
H       -2.87343088      -4.45049070      -0.09856547        1
O        4.65423278      -1.18588503      -0.85961514        2
H        4.25153770      -2.01274080      -1.12490375        2
H        3.92005655      -0.57748956      -0.77551957        2
O       -1.22422429       3.98997622      -0.76744884        3
H       -0.65053680       4.64766503      -0.37430771        3
H       -2.02498054       4.02645957      -0.24429473        3
40
Properties=species:S:1:pos:R:3:fragment_id:I:1 config_id=canonical_p3__mobley_8337722__cluster_3water__compressed molecule_id=mobley_8337722 smiles="CC(C)[C@@H]1CC[C@@H](C)C[C@H]1O" split=canonical_prospective_3 chemical_role=stratum_2 category=cluster_3water motif=compressed regime=compressed conformer_index=0 n_solute_atoms=31 n_waters=3 pbc="F F F"
C       -3.02048527      -1.21825699      -0.10584353        0
C       -2.21959523       0.08456805      -0.21727900        0
C       -2.57974467       1.00592907       0.95136826        0
C       -0.69216566      -0.18791959      -0.36840443        0
C       -0.06634520      -0.89309066       0.84889203        0
C        1.41781568      -1.19171244       0.63372506        0
C        2.20912018       0.07496865       0.29201502        0
C        3.67766224      -0.25814063       0.03615514        0
C        1.59501889       0.78199640      -0.91893604        0
C        0.10989814       1.08820308      -0.70688388        0
O       -0.40796480       1.67476195      -1.89828591        0
H       -2.76842575      -1.90398866      -0.92135016        0
H       -4.09496936      -1.01275484      -0.16693178        0
H       -2.83848307      -1.73028367       0.84411019        0
H       -2.56248291       0.57832100      -1.13608039        0
H       -3.65943872       1.19260749       0.97047899        0
H       -2.30707336       0.56647011       1.91568432        0
H       -2.08782298       1.97859775       0.86422752        0
H       -0.59315199      -0.86412193      -1.23109035        0
H       -0.17276737      -0.27060048       1.74495248        0
H       -0.58011343      -1.83852498       1.05194544        0
H        1.52377755      -1.92915276      -0.17233165        0
H        1.82670412      -1.65336097       1.54056928        0
H        2.16268420       0.75616203       1.15210326        0
H        3.79012218      -0.93802868      -0.81520370        0
H        4.12551439      -0.73695521       0.91329513        0
H        4.25004514       0.65049081      -0.17828364        0
H        1.71630998       0.16954845      -1.82275685        0
H        2.13327334       1.71622717      -1.12424671        0
H        0.01002376       1.82481719       0.09808448        0
H        0.10305998       2.48322329      -2.07369856        0
O       -5.32077544       2.45165650       1.54639467        1
H       -4.46505343       2.85515278       1.40092154        1
H       -5.15865502       1.51131009       1.47091328        1
O       -7.53517483       4.01110459       2.17128780        2
H       -6.64373690       4.30673643       1.98643089        2
H       -7.49309883       3.05806356       2.09271146        2
O       -9.86835458       5.13141968       3.07103039        3
H       -9.06000498       5.58048899       2.82376632        3
H       -9.67896802       4.20327074       2.93353811        3
40
Properties=species:S:1:pos:R:3:fragment_id:I:1 config_id=canonical_p3__mobley_8337722__cluster_3water__cooperative molecule_id=mobley_8337722 smiles="CC(C)[C@@H]1CC[C@@H](C)C[C@H]1O" split=canonical_prospective_3 chemical_role=stratum_2 category=cluster_3water motif=cooperative regime=cooperative conformer_index=0 n_solute_atoms=31 n_waters=3 pbc="F F F"
C       -3.02048527      -1.21825699      -0.10584353        0
C       -2.21959523       0.08456805      -0.21727900        0
C       -2.57974467       1.00592907       0.95136826        0
C       -0.69216566      -0.18791959      -0.36840443        0
C       -0.06634520      -0.89309066       0.84889203        0
C        1.41781568      -1.19171244       0.63372506        0
C        2.20912018       0.07496865       0.29201502        0
C        3.67766224      -0.25814063       0.03615514        0
C        1.59501889       0.78199640      -0.91893604        0
C        0.10989814       1.08820308      -0.70688388        0
O       -0.40796480       1.67476195      -1.89828591        0
H       -2.76842575      -1.90398866      -0.92135016        0
H       -4.09496936      -1.01275484      -0.16693178        0
H       -2.83848307      -1.73028367       0.84411019        0
H       -2.56248291       0.57832100      -1.13608039        0
H       -3.65943872       1.19260749       0.97047899        0
H       -2.30707336       0.56647011       1.91568432        0
H       -2.08782298       1.97859775       0.86422752        0
H       -0.59315199      -0.86412193      -1.23109035        0
H       -0.17276737      -0.27060048       1.74495248        0
H       -0.58011343      -1.83852498       1.05194544        0
H        1.52377755      -1.92915276      -0.17233165        0
H        1.82670412      -1.65336097       1.54056928        0
H        2.16268420       0.75616203       1.15210326        0
H        3.79012218      -0.93802868      -0.81520370        0
H        4.12551439      -0.73695521       0.91329513        0
H        4.25004514       0.65049081      -0.17828364        0
H        1.71630998       0.16954845      -1.82275685        0
H        2.13327334       1.71622717      -1.12424671        0
H        0.01002376       1.82481719       0.09808448        0
H        0.10305998       2.48322329      -2.07369856        0
O       -5.14579508      -2.16541344      -1.96568001        1
H       -4.92886184      -1.24277527      -1.83184944        1
H       -4.34506354      -2.63618962      -1.73452936        1
O       -7.50052386      -3.14163884      -2.86246889        2
H       -7.26344484      -2.22581886      -2.71652663        2
H       -6.71652114      -3.63413791      -2.61953631        2
O      -10.17344088      -3.94722723      -3.65407369        3
H       -9.84390610      -3.05799086      -3.52408389        3
H       -9.42361321      -4.51115539      -3.46440204        3
40
Properties=species:S:1:pos:R:3:fragment_id:I:1 config_id=canonical_p3__mobley_8337722__cluster_3water__equilibrium molecule_id=mobley_8337722 smiles="CC(C)[C@@H]1CC[C@@H](C)C[C@H]1O" split=canonical_prospective_3 chemical_role=stratum_2 category=cluster_3water motif=equilibrium regime=equilibrium conformer_index=0 n_solute_atoms=31 n_waters=3 pbc="F F F"
C       -3.02048527      -1.21825699      -0.10584353        0
C       -2.21959523       0.08456805      -0.21727900        0
C       -2.57974467       1.00592907       0.95136826        0
C       -0.69216566      -0.18791959      -0.36840443        0
C       -0.06634520      -0.89309066       0.84889203        0
C        1.41781568      -1.19171244       0.63372506        0
C        2.20912018       0.07496865       0.29201502        0
C        3.67766224      -0.25814063       0.03615514        0
C        1.59501889       0.78199640      -0.91893604        0
C        0.10989814       1.08820308      -0.70688388        0
O       -0.40796480       1.67476195      -1.89828591        0
H       -2.76842575      -1.90398866      -0.92135016        0
H       -4.09496936      -1.01275484      -0.16693178        0
H       -2.83848307      -1.73028367       0.84411019        0
H       -2.56248291       0.57832100      -1.13608039        0
H       -3.65943872       1.19260749       0.97047899        0
H       -2.30707336       0.56647011       1.91568432        0
H       -2.08782298       1.97859775       0.86422752        0
H       -0.59315199      -0.86412193      -1.23109035        0
H       -0.17276737      -0.27060048       1.74495248        0
H       -0.58011343      -1.83852498       1.05194544        0
H        1.52377755      -1.92915276      -0.17233165        0
H        1.82670412      -1.65336097       1.54056928        0
H        2.16268420       0.75616203       1.15210326        0
H        3.79012218      -0.93802868      -0.81520370        0
H        4.12551439      -0.73695521       0.91329513        0
H        4.25004514       0.65049081      -0.17828364        0
H        1.71630998       0.16954845      -1.82275685        0
H        2.13327334       1.71622717      -1.12424671        0
H        0.01002376       1.82481719       0.09808448        0
H        0.10305998       2.48322329      -2.07369856        0
O       -4.25542795      -2.88612384      -2.47634660        1
H       -4.79054100      -3.64070919      -2.23040594        1
H       -3.43479794      -3.26595233      -2.79023916        1
O       -5.07328421      -2.70349118       1.71893777        2
H       -5.81073815      -2.56699003       1.12415969        2
H       -4.58517357      -1.88064754       1.68880174        2
O        6.12621366      -0.33560254       0.45791891        3
H        6.42675318       0.39263640      -0.08575000        3
H        5.94914303      -1.04184855      -0.16344604        3
40
Properties=species:S:1:pos:R:3:fragment_id:I:1 config_id=canonical_p3__mobley_8337722__cluster_3water__orientation molecule_id=mobley_8337722 smiles="CC(C)[C@@H]1CC[C@@H](C)C[C@H]1O" split=canonical_prospective_3 chemical_role=stratum_2 category=cluster_3water motif=orientation regime=orientation conformer_index=0 n_solute_atoms=31 n_waters=3 pbc="F F F"
C       -3.02048527      -1.21825699      -0.10584353        0
C       -2.21959523       0.08456805      -0.21727900        0
C       -2.57974467       1.00592907       0.95136826        0
C       -0.69216566      -0.18791959      -0.36840443        0
C       -0.06634520      -0.89309066       0.84889203        0
C        1.41781568      -1.19171244       0.63372506        0
C        2.20912018       0.07496865       0.29201502        0
C        3.67766224      -0.25814063       0.03615514        0
C        1.59501889       0.78199640      -0.91893604        0
C        0.10989814       1.08820308      -0.70688388        0
O       -0.40796480       1.67476195      -1.89828591        0
H       -2.76842575      -1.90398866      -0.92135016        0
H       -4.09496936      -1.01275484      -0.16693178        0
H       -2.83848307      -1.73028367       0.84411019        0
H       -2.56248291       0.57832100      -1.13608039        0
H       -3.65943872       1.19260749       0.97047899        0
H       -2.30707336       0.56647011       1.91568432        0
H       -2.08782298       1.97859775       0.86422752        0
H       -0.59315199      -0.86412193      -1.23109035        0
H       -0.17276737      -0.27060048       1.74495248        0
H       -0.58011343      -1.83852498       1.05194544        0
H        1.52377755      -1.92915276      -0.17233165        0
H        1.82670412      -1.65336097       1.54056928        0
H        2.16268420       0.75616203       1.15210326        0
H        3.79012218      -0.93802868      -0.81520370        0
H        4.12551439      -0.73695521       0.91329513        0
H        4.25004514       0.65049081      -0.17828364        0
H        1.71630998       0.16954845      -1.82275685        0
H        2.13327334       1.71622717      -1.12424671        0
H        0.01002376       1.82481719       0.09808448        0
H        0.10305998       2.48322329      -2.07369856        0
O       -4.25542795      -2.88612384      -2.47634660        1
H       -4.23910627      -1.96310890      -2.22334686        1
H       -3.33432001      -3.11982343      -2.59113552        1
O       -5.07328421      -2.70349118       1.71893777        2
H       -5.07922844      -1.84023542       2.13244230        2
H       -5.88272495      -3.11814801       2.01742940        2
O        6.12621366      -0.33560254       0.45791891        3
H        6.84290319      -0.59356634      -0.12177294        3
H        5.39357382      -0.15624859      -0.13140517        3
35
Properties=species:S:1:pos:R:3:fragment_id:I:1 config_id=canonical_p3__mobley_9007496__cluster_3water__compressed molecule_id=mobley_9007496 smiles=CNC(=O)Oc1cccc2ccccc12 split=canonical_prospective_3 chemical_role=stratum_3 category=cluster_3water motif=compressed regime=compressed conformer_index=0 n_solute_atoms=26 n_waters=3 pbc="F F F"
C        4.56739514       0.32263086      -0.18926662        0
N        3.35769262       0.38609724       0.58220148        0
C        2.20614341      -0.22639821       0.17085323        0
O        2.09867754      -0.86886318      -0.86437395        0
O        1.21347726       0.00012021       1.10909535        0
C       -0.02097191      -0.57887833       0.77623098        0
C       -0.20707428      -1.93502470       1.05475566        0
C       -1.43545581      -2.52373101       0.77815680        0
C       -2.47151696      -1.75493915       0.24256662        0
C       -2.29877424      -0.38395528      -0.02096726        0
C       -3.34737885       0.38746443      -0.54893216        0
C       -3.17811616       1.74901903      -0.80352373        0
C       -1.95817449       2.35903990      -0.53372551        0
C       -0.90510053       1.60720136      -0.01033693        0
C       -1.05347464       0.22854769       0.25239854        0
H        4.91478479      -0.71339022      -0.22545974        0
H        5.32184458       0.95283379       0.28681389        0
H        4.37206878       0.67525029      -1.20566387        0
H        3.32820332       0.87803296       1.46396595        0
H        0.60093915      -2.52739102       1.47281248        0
H       -1.58985970      -3.58094246       0.97676449        0
H       -3.42437030      -2.23669482       0.03243574        0
H       -4.30983571      -0.07035002      -0.76689821        0
H       -3.99941427       2.33092541      -1.21334261        0
H       -1.82262253       3.41878491      -0.73247587        0
H        0.04091379       2.10461035       0.18953773        0
O       -1.32845376      -1.21446618       3.14704415        1
H       -1.22600250      -0.35051009       2.74790076        1
H       -0.88001193      -1.81062434       2.54727150        1
O       -1.97372235      -2.45821019       5.48444158        2
H       -2.18046008      -1.56135077       5.22150713        2
H       -1.48953571      -2.82029167       4.74235523        2
O       -2.59306216      -3.48626916       8.12751960        3
H       -2.73614018      -2.60007165       7.79523284        3
H       -2.19997859      -3.95747567       7.39288937        3
35
Properties=species:S:1:pos:R:3:fragment_id:I:1 config_id=canonical_p3__mobley_9007496__cluster_3water__cooperative molecule_id=mobley_9007496 smiles=CNC(=O)Oc1cccc2ccccc12 split=canonical_prospective_3 chemical_role=stratum_3 category=cluster_3water motif=cooperative regime=cooperative conformer_index=0 n_solute_atoms=26 n_waters=3 pbc="F F F"
C        4.56739514       0.32263086      -0.18926662        0
N        3.35769262       0.38609724       0.58220148        0
C        2.20614341      -0.22639821       0.17085323        0
O        2.09867754      -0.86886318      -0.86437395        0
O        1.21347726       0.00012021       1.10909535        0
C       -0.02097191      -0.57887833       0.77623098        0
C       -0.20707428      -1.93502470       1.05475566        0
C       -1.43545581      -2.52373101       0.77815680        0
C       -2.47151696      -1.75493915       0.24256662        0
C       -2.29877424      -0.38395528      -0.02096726        0
C       -3.34737885       0.38746443      -0.54893216        0
C       -3.17811616       1.74901903      -0.80352373        0
C       -1.95817449       2.35903990      -0.53372551        0
C       -0.90510053       1.60720136      -0.01033693        0
C       -1.05347464       0.22854769       0.25239854        0
H        4.91478479      -0.71339022      -0.22545974        0
H        5.32184458       0.95283379       0.28681389        0
H        4.37206878       0.67525029      -1.20566387        0
H        3.32820332       0.87803296       1.46396595        0
H        0.60093915      -2.52739102       1.47281248        0
H       -1.58985970      -3.58094246       0.97676449        0
H       -3.42437030      -2.23669482       0.03243574        0
H       -4.30983571      -0.07035002      -0.76689821        0
H       -3.99941427       2.33092541      -1.21334261        0
H       -1.82262253       3.41878491      -0.73247587        0
H        0.04091379       2.10461035       0.18953773        0
O       -2.63149390      -5.94207966       2.16460214        1
H       -3.11804567      -5.11820921       2.13746006        1
H       -1.78353845      -5.73303672       1.77280569        1
O       -3.67970270      -8.47720956       2.91914518        2
H       -4.13831958      -7.63739169       2.89448091        2
H       -2.78938706      -8.27294880       2.63305525        2
O       -4.82988184     -10.86967452       3.83665366        3
H       -5.23473820     -10.00332415       3.79469883        3
H       -3.94517575     -10.73789892       3.49582795        3
35
Properties=species:S:1:pos:R:3:fragment_id:I:1 config_id=canonical_p3__mobley_9007496__cluster_3water__equilibrium molecule_id=mobley_9007496 smiles=CNC(=O)Oc1cccc2ccccc12 split=canonical_prospective_3 chemical_role=stratum_3 category=cluster_3water motif=equilibrium regime=equilibrium conformer_index=0 n_solute_atoms=26 n_waters=3 pbc="F F F"
C        4.56739514       0.32263086      -0.18926662        0
N        3.35769262       0.38609724       0.58220148        0
C        2.20614341      -0.22639821       0.17085323        0
O        2.09867754      -0.86886318      -0.86437395        0
O        1.21347726       0.00012021       1.10909535        0
C       -0.02097191      -0.57887833       0.77623098        0
C       -0.20707428      -1.93502470       1.05475566        0
C       -1.43545581      -2.52373101       0.77815680        0
C       -2.47151696      -1.75493915       0.24256662        0
C       -2.29877424      -0.38395528      -0.02096726        0
C       -3.34737885       0.38746443      -0.54893216        0
C       -3.17811616       1.74901903      -0.80352373        0
C       -1.95817449       2.35903990      -0.53372551        0
C       -0.90510053       1.60720136      -0.01033693        0
C       -1.05347464       0.22854769       0.25239854        0
H        4.91478479      -0.71339022      -0.22545974        0
H        5.32184458       0.95283379       0.28681389        0
H        4.37206878       0.67525029      -1.20566387        0
H        3.32820332       0.87803296       1.46396595        0
H        0.60093915      -2.52739102       1.47281248        0
H       -1.58985970      -3.58094246       0.97676449        0
H       -3.42437030      -2.23669482       0.03243574        0
H       -4.30983571      -0.07035002      -0.76689821        0
H       -3.99941427       2.33092541      -1.21334261        0
H       -1.82262253       3.41878491      -0.73247587        0
H        0.04091379       2.10461035       0.18953773        0
O        7.74475619      -0.42958262      -0.57934724        1
H        6.98473883      -0.14074300      -1.08449785        1
H        7.90562061      -1.32454051      -0.87835370        1
O       -2.61179503       5.90124147      -0.13690762        2
H       -1.79114573       5.61905552      -0.54081065        2
H       -3.04978181       6.41394736      -0.81626915        2
O       -0.48622454      -2.48878447       3.14031723        3
H       -1.06812561      -3.10944654       3.57895327        3
H        0.32353672      -2.51772296       3.64990637        3
35
Properties=species:S:1:pos:R:3:fragment_id:I:1 config_id=canonical_p3__mobley_9007496__cluster_3water__orientation molecule_id=mobley_9007496 smiles=CNC(=O)Oc1cccc2ccccc12 split=canonical_prospective_3 chemical_role=stratum_3 category=cluster_3water motif=orientation regime=orientation conformer_index=0 n_solute_atoms=26 n_waters=3 pbc="F F F"
C        4.56739514       0.32263086      -0.18926662        0
N        3.35769262       0.38609724       0.58220148        0
C        2.20614341      -0.22639821       0.17085323        0
O        2.09867754      -0.86886318      -0.86437395        0
O        1.21347726       0.00012021       1.10909535        0
C       -0.02097191      -0.57887833       0.77623098        0
C       -0.20707428      -1.93502470       1.05475566        0
C       -1.43545581      -2.52373101       0.77815680        0
C       -2.47151696      -1.75493915       0.24256662        0
C       -2.29877424      -0.38395528      -0.02096726        0
C       -3.34737885       0.38746443      -0.54893216        0
C       -3.17811616       1.74901903      -0.80352373        0
C       -1.95817449       2.35903990      -0.53372551        0
C       -0.90510053       1.60720136      -0.01033693        0
C       -1.05347464       0.22854769       0.25239854        0
H        4.91478479      -0.71339022      -0.22545974        0
H        5.32184458       0.95283379       0.28681389        0
H        4.37206878       0.67525029      -1.20566387        0
H        3.32820332       0.87803296       1.46396595        0
H        0.60093915      -2.52739102       1.47281248        0
H       -1.58985970      -3.58094246       0.97676449        0
H       -3.42437030      -2.23669482       0.03243574        0
H       -4.30983571      -0.07035002      -0.76689821        0
H       -3.99941427       2.33092541      -1.21334261        0
H       -1.82262253       3.41878491      -0.73247587        0
H        0.04091379       2.10461035       0.18953773        0
O        7.74475619      -0.42958262      -0.57934724        1
H        8.70178180      -0.43697127      -0.59605743        1
H        7.52167030      -0.32715948       0.34584140        1
O       -2.61179503       5.90124147      -0.13690762        2
H       -2.46417800       6.74022641      -0.57342259        2
H       -2.01732767       5.91313070       0.61322506        2
O       -0.48622454      -2.48878447       3.14031723        3
H       -0.58526126      -2.32164439       4.07759401        3
H        0.44519788      -2.34988650       2.96887784        3
39
Properties=species:S:1:pos:R:3:fragment_id:I:1 config_id=canonical_p3__mobley_9460824__cluster_3water__compressed molecule_id=mobley_9460824 smiles=CCOP(=S)(OCC)SCSCC split=canonical_prospective_3 chemical_role=stratum_4 category=cluster_3water motif=compressed regime=compressed conformer_index=0 n_solute_atoms=30 n_waters=3 pbc="F F F"
C       -0.87378342      -0.32272068      -3.55236860        0
C       -1.48342154       0.32704774      -2.32663607        0
O       -0.65023050       0.05004444      -1.21194921        0
P       -1.21567104       0.30592161       0.29285399        0
S       -1.70731033       2.17098374       0.59141421        0
O       -2.49094249      -0.70233878       0.26961686        0
C       -3.30159558      -0.81231737       1.42845697        0
C       -4.07931754      -2.11000518       1.34948405        0
S        0.22601199      -0.56241907       1.54922049        0
C        1.69831584       0.38995149       1.12921425        0
S        3.12940992      -0.22439791       2.06029441        0
C        4.34237474       1.06642022       1.64064449        0
C        4.78729992       0.99282851       0.19118958        0
H       -1.48083596      -0.12709505      -4.44068149        0
H        0.13919212       0.05523946      -3.72610828        0
H       -0.79014204      -1.40560773      -3.41275382        0
H       -1.54378520       1.40931519      -2.47359649        0
H       -2.49069305      -0.06620394      -2.16097586        0
H       -3.99335567       0.03468312       1.46142293        0
H       -2.68628697      -0.80073789       2.33276547        0
H       -3.39713225      -2.96494641       1.29633008        0
H       -4.69479673      -2.13683247       0.44417301        0
H       -4.72836906      -2.22991274       2.22138765        0
H        1.88665190       0.29380297       0.05751402        0
H        1.52575742       1.44076728       1.37466920        0
H        5.21109745       0.92460992       2.29167190        0
H        3.92278553       2.05127635       1.86892841        0
H        5.20325640       0.00945577      -0.05217906        0
H        3.96653187       1.20587158      -0.50014787        0
H        5.56898429       1.73731581       0.00614475        0
O       -2.99956641       1.13183271      -5.43199649        1
H       -2.57752995       1.72861232      -4.81395833        1
H       -2.92090649       0.26927843      -5.02451082        1
O       -4.38799188       1.34827335      -7.82888710        2
H       -4.03625016       2.05652026      -7.28953943        2
H       -4.15418366       0.54874548      -7.35737809        2
O       -6.03219932       1.63709419      -9.91327229        3
H       -5.58960764       2.32519961      -9.41642686        3
H       -5.75334039       0.82225904      -9.49552450        3
39
Properties=species:S:1:pos:R:3:fragment_id:I:1 config_id=canonical_p3__mobley_9460824__cluster_3water__cooperative molecule_id=mobley_9460824 smiles=CCOP(=S)(OCC)SCSCC split=canonical_prospective_3 chemical_role=stratum_4 category=cluster_3water motif=cooperative regime=cooperative conformer_index=0 n_solute_atoms=30 n_waters=3 pbc="F F F"
C       -0.87378342      -0.32272068      -3.55236860        0
C       -1.48342154       0.32704774      -2.32663607        0
O       -0.65023050       0.05004444      -1.21194921        0
P       -1.21567104       0.30592161       0.29285399        0
S       -1.70731033       2.17098374       0.59141421        0
O       -2.49094249      -0.70233878       0.26961686        0
C       -3.30159558      -0.81231737       1.42845697        0
C       -4.07931754      -2.11000518       1.34948405        0
S        0.22601199      -0.56241907       1.54922049        0
C        1.69831584       0.38995149       1.12921425        0
S        3.12940992      -0.22439791       2.06029441        0
C        4.34237474       1.06642022       1.64064449        0
C        4.78729992       0.99282851       0.19118958        0
H       -1.48083596      -0.12709505      -4.44068149        0
H        0.13919212       0.05523946      -3.72610828        0
H       -0.79014204      -1.40560773      -3.41275382        0
H       -1.54378520       1.40931519      -2.47359649        0
H       -2.49069305      -0.06620394      -2.16097586        0
H       -3.99335567       0.03468312       1.46142293        0
H       -2.68628697      -0.80073789       2.33276547        0
H       -3.39713225      -2.96494641       1.29633008        0
H       -4.69479673      -2.13683247       0.44417301        0
H       -4.72836906      -2.22991274       2.22138765        0
H        1.88665190       0.29380297       0.05751402        0
H        1.52575742       1.44076728       1.37466920        0
H        5.21109745       0.92460992       2.29167190        0
H        3.92278553       2.05127635       1.86892841        0
H        5.20325640       0.00945577      -0.05217906        0
H        3.96653187       1.20587158      -0.50014787        0
H        5.56898429       1.73731581       0.00614475        0
O       -4.06784276       0.73325504      -5.32109585        1
H       -3.60971797       1.42556571      -4.84458829        1
H       -3.76437336      -0.07875946      -4.91517638        1
O       -5.55918335       0.79668530      -7.60439168        2
H       -5.22128385       1.53974796      -7.10447804        2
H       -5.25648540       0.02637651      -7.12352771        2
O       -7.03498628       0.78267083      -9.91870006        3
H       -6.72384439       1.54259968      -9.42683554        3
H       -6.71611482       0.02872469      -9.42259719        3
39
Properties=species:S:1:pos:R:3:fragment_id:I:1 config_id=canonical_p3__mobley_9460824__cluster_3water__equilibrium molecule_id=mobley_9460824 smiles=CCOP(=S)(OCC)SCSCC split=canonical_prospective_3 chemical_role=stratum_4 category=cluster_3water motif=equilibrium regime=equilibrium conformer_index=0 n_solute_atoms=30 n_waters=3 pbc="F F F"
C       -0.87378342      -0.32272068      -3.55236860        0
C       -1.48342154       0.32704774      -2.32663607        0
O       -0.65023050       0.05004444      -1.21194921        0
P       -1.21567104       0.30592161       0.29285399        0
S       -1.70731033       2.17098374       0.59141421        0
O       -2.49094249      -0.70233878       0.26961686        0
C       -3.30159558      -0.81231737       1.42845697        0
C       -4.07931754      -2.11000518       1.34948405        0
S        0.22601199      -0.56241907       1.54922049        0
C        1.69831584       0.38995149       1.12921425        0
S        3.12940992      -0.22439791       2.06029441        0
C        4.34237474       1.06642022       1.64064449        0
C        4.78729992       0.99282851       0.19118958        0
H       -1.48083596      -0.12709505      -4.44068149        0
H        0.13919212       0.05523946      -3.72610828        0
H       -0.79014204      -1.40560773      -3.41275382        0
H       -1.54378520       1.40931519      -2.47359649        0
H       -2.49069305      -0.06620394      -2.16097586        0
H       -3.99335567       0.03468312       1.46142293        0
H       -2.68628697      -0.80073789       2.33276547        0
H       -3.39713225      -2.96494641       1.29633008        0
H       -4.69479673      -2.13683247       0.44417301        0
H       -4.72836906      -2.22991274       2.22138765        0
H        1.88665190       0.29380297       0.05751402        0
H        1.52575742       1.44076728       1.37466920        0
H        5.21109745       0.92460992       2.29167190        0
H        3.92278553       2.05127635       1.86892841        0
H        5.20325640       0.00945577      -0.05217906        0
H        3.96653187       1.20587158      -0.50014787        0
H        5.56898429       1.73731581       0.00614475        0
O       -3.32680301       0.79020210      -5.85933488        1
H       -3.10743691       0.59592717      -6.77057997        1
H       -4.06040773       1.40259330      -5.91440734        1
O       -6.74489700      -3.08208145       2.27791424        2
H       -6.70976746      -2.66095756       1.41904730        2
H       -6.56573522      -2.37602998       2.89890073        2
O        6.66501884      -0.65089286       3.98235984        3
H        7.17508954       0.12015177       3.73426732        3
H        7.31320018      -1.34997336       4.06826246        3
39
Properties=species:S:1:pos:R:3:fragment_id:I:1 config_id=canonical_p3__mobley_9460824__cluster_3water__orientation molecule_id=mobley_9460824 smiles=CCOP(=S)(OCC)SCSCC split=canonical_prospective_3 chemical_role=stratum_4 category=cluster_3water motif=orientation regime=orientation conformer_index=0 n_solute_atoms=30 n_waters=3 pbc="F F F"
C       -0.87378342      -0.32272068      -3.55236860        0
C       -1.48342154       0.32704774      -2.32663607        0
O       -0.65023050       0.05004444      -1.21194921        0
P       -1.21567104       0.30592161       0.29285399        0
S       -1.70731033       2.17098374       0.59141421        0
O       -2.49094249      -0.70233878       0.26961686        0
C       -3.30159558      -0.81231737       1.42845697        0
C       -4.07931754      -2.11000518       1.34948405        0
S        0.22601199      -0.56241907       1.54922049        0
C        1.69831584       0.38995149       1.12921425        0
S        3.12940992      -0.22439791       2.06029441        0
C        4.34237474       1.06642022       1.64064449        0
C        4.78729992       0.99282851       0.19118958        0
H       -1.48083596      -0.12709505      -4.44068149        0
H        0.13919212       0.05523946      -3.72610828        0
H       -0.79014204      -1.40560773      -3.41275382        0
H       -1.54378520       1.40931519      -2.47359649        0
H       -2.49069305      -0.06620394      -2.16097586        0
H       -3.99335567       0.03468312       1.46142293        0
H       -2.68628697      -0.80073789       2.33276547        0
H       -3.39713225      -2.96494641       1.29633008        0
H       -4.69479673      -2.13683247       0.44417301        0
H       -4.72836906      -2.22991274       2.22138765        0
H        1.88665190       0.29380297       0.05751402        0
H        1.52575742       1.44076728       1.37466920        0
H        5.21109745       0.92460992       2.29167190        0
H        3.92278553       2.05127635       1.86892841        0
H        5.20325640       0.00945577      -0.05217906        0
H        3.96653187       1.20587158      -0.50014787        0
H        5.56898429       1.73731581       0.00614475        0
O       -3.32680301       0.79020210      -5.85933488        1
H       -2.77187228       0.07428609      -5.54990317        1
H       -2.87802450       1.58433727      -5.56919866        1
O       -6.74489700      -3.08208145       2.27791424        2
H       -7.30911585      -3.76880764       1.92253265        2
H       -6.50135276      -2.55415974       1.51750862        2
O        6.66501884      -0.65089286       3.98235984        3
H        7.25028078      -1.04287693       3.33424812        3
H        6.73650106      -1.22231524       4.74695031        3
33
Properties=species:S:1:pos:R:3:fragment_id:I:1 config_id=canonical_p3__mobley_9534740__cluster_3water__compressed molecule_id=mobley_9534740 smiles="OC[C@H]1O[C@@H](O)[C@H](O)[C@@H](O)[C@@H]1O" split=canonical_prospective_3 chemical_role=stratum_2 category=cluster_3water motif=compressed regime=compressed conformer_index=0 n_solute_atoms=24 n_waters=3 pbc="F F F"
O       -3.20839890       1.25521598       0.77967044        0
C       -2.49149378       0.02613452       0.92275747        0
C       -1.22302581       0.07165603       0.06423071        0
O       -0.46199550       1.22880408       0.47327909        0
C        0.71398120       1.39201137      -0.30546577        0
O        1.40469817       2.54277492       0.16204102        0
C        1.65304405       0.18573961      -0.15004671        0
O        2.82686851       0.32855077      -0.96348978        0
C        0.91484513      -1.08551690      -0.55604493        0
O        1.72697800      -2.24141171      -0.29723070        0
C       -0.39833454      -1.21367474       0.21999477        0
O       -1.11744261      -2.34900197      -0.26302787        0
H       -2.55596100       1.95809737       0.96055833        0
H       -3.15319304      -0.79197163       0.62435894        0
H       -2.24681458      -0.08465548       1.98433674        0
H       -1.52778915       0.21729597      -0.98086507        0
H        0.46027589       1.56467136      -1.35857054        0
H        0.79697823       3.28387829      -0.00324263        0
H        2.00231518       0.09954869       0.88651634        0
H        3.19318611       1.20504008      -0.72692948        0
H        0.72359039      -1.09458665      -1.63644232        0
H        2.60700777      -2.02314794      -0.66694366        0
H       -0.17504303      -1.39687256       1.27872004        0
H       -0.46427668      -3.07857946      -0.28366348        0
O       -5.25076959      -0.75253376       0.18585104        1
H       -4.82871480       0.10646265       0.17079277        1
H       -4.52534978      -1.37672456       0.16626058        1
O       -7.92445170      -1.12916045       0.55676429        2
H       -7.45429743      -0.29854410       0.48421578        2
H       -7.24509221      -1.79785121       0.46984362        2
O      -10.70401766      -1.43084005       0.78978547        3
H      -10.20496205      -0.61528723       0.74452016        3
H      -10.04217488      -2.12039500       0.73772842        3
33
Properties=species:S:1:pos:R:3:fragment_id:I:1 config_id=canonical_p3__mobley_9534740__cluster_3water__cooperative molecule_id=mobley_9534740 smiles="OC[C@H]1O[C@@H](O)[C@H](O)[C@@H](O)[C@@H]1O" split=canonical_prospective_3 chemical_role=stratum_2 category=cluster_3water motif=cooperative regime=cooperative conformer_index=0 n_solute_atoms=24 n_waters=3 pbc="F F F"
O       -3.20839890       1.25521598       0.77967044        0
C       -2.49149378       0.02613452       0.92275747        0
C       -1.22302581       0.07165603       0.06423071        0
O       -0.46199550       1.22880408       0.47327909        0
C        0.71398120       1.39201137      -0.30546577        0
O        1.40469817       2.54277492       0.16204102        0
C        1.65304405       0.18573961      -0.15004671        0
O        2.82686851       0.32855077      -0.96348978        0
C        0.91484513      -1.08551690      -0.55604493        0
O        1.72697800      -2.24141171      -0.29723070        0
C       -0.39833454      -1.21367474       0.21999477        0
O       -1.11744261      -2.34900197      -0.26302787        0
H       -2.55596100       1.95809737       0.96055833        0
H       -3.15319304      -0.79197163       0.62435894        0
H       -2.24681458      -0.08465548       1.98433674        0
H       -1.52778915       0.21729597      -0.98086507        0
H        0.46027589       1.56467136      -1.35857054        0
H        0.79697823       3.28387829      -0.00324263        0
H        2.00231518       0.09954869       0.88651634        0
H        3.19318611       1.20504008      -0.72692948        0
H        0.72359039      -1.09458665      -1.63644232        0
H        2.60700777      -2.02314794      -0.66694366        0
H       -0.17504303      -1.39687256       1.27872004        0
H       -0.46427668      -3.07857946      -0.28366348        0
O       -0.70523130       4.60424313       2.10622690        1
H        0.01266700       4.26120484       1.57408160        1
H       -1.34727852       3.89467869       2.12915093        1
O       -0.71729997       7.19041830       3.16669750        2
H       -0.01442031       6.76009901       2.67985324        2
H       -1.41512034       6.53659074       3.20898337        2
O       -1.15077026       9.66587152       4.46605266        3
H       -0.39868649       9.40766465       3.93320084        3
H       -1.72332125       8.89880633       4.46074341        3
33
Properties=species:S:1:pos:R:3:fragment_id:I:1 config_id=canonical_p3__mobley_9534740__cluster_3water__equilibrium molecule_id=mobley_9534740 smiles="OC[C@H]1O[C@@H](O)[C@H](O)[C@@H](O)[C@@H]1O" split=canonical_prospective_3 chemical_role=stratum_2 category=cluster_3water motif=equilibrium regime=equilibrium conformer_index=0 n_solute_atoms=24 n_waters=3 pbc="F F F"
O       -3.20839890       1.25521598       0.77967044        0
C       -2.49149378       0.02613452       0.92275747        0
C       -1.22302581       0.07165603       0.06423071        0
O       -0.46199550       1.22880408       0.47327909        0
C        0.71398120       1.39201137      -0.30546577        0
O        1.40469817       2.54277492       0.16204102        0
C        1.65304405       0.18573961      -0.15004671        0
O        2.82686851       0.32855077      -0.96348978        0
C        0.91484513      -1.08551690      -0.55604493        0
O        1.72697800      -2.24141171      -0.29723070        0
C       -0.39833454      -1.21367474       0.21999477        0
O       -1.11744261      -2.34900197      -0.26302787        0
H       -2.55596100       1.95809737       0.96055833        0
H       -3.15319304      -0.79197163       0.62435894        0
H       -2.24681458      -0.08465548       1.98433674        0
H       -1.52778915       0.21729597      -0.98086507        0
H        0.46027589       1.56467136      -1.35857054        0
H        0.79697823       3.28387829      -0.00324263        0
H        2.00231518       0.09954869       0.88651634        0
H        3.19318611       1.20504008      -0.72692948        0
H        0.72359039      -1.09458665      -1.63644232        0
H        2.60700777      -2.02314794      -0.66694366        0
H       -0.17504303      -1.39687256       1.27872004        0
H       -0.46427668      -3.07857946      -0.28366348        0
O       -2.06374800       3.52659927       1.90453842        1
H       -1.55053191       3.72416907       1.12107989        1
H       -1.49180327       3.76772863       2.63321372        1
O       -5.54006438       1.83042222       1.22443638        2
H       -5.91969744       0.95233826       1.25728676        2
H       -5.25144938       1.93332604       0.31760452        2
O        1.87049870      -3.51354206      -2.34444622        3
H        1.17913669      -3.06680599      -2.83299233        3
H        2.19531845      -4.18324311      -2.94629709        3
33
Properties=species:S:1:pos:R:3:fragment_id:I:1 config_id=canonical_p3__mobley_9534740__cluster_3water__orientation molecule_id=mobley_9534740 smiles="OC[C@H]1O[C@@H](O)[C@H](O)[C@@H](O)[C@@H]1O" split=canonical_prospective_3 chemical_role=stratum_2 category=cluster_3water motif=orientation regime=orientation conformer_index=0 n_solute_atoms=24 n_waters=3 pbc="F F F"
O       -3.20839890       1.25521598       0.77967044        0
C       -2.49149378       0.02613452       0.92275747        0
C       -1.22302581       0.07165603       0.06423071        0
O       -0.46199550       1.22880408       0.47327909        0
C        0.71398120       1.39201137      -0.30546577        0
O        1.40469817       2.54277492       0.16204102        0
C        1.65304405       0.18573961      -0.15004671        0
O        2.82686851       0.32855077      -0.96348978        0
C        0.91484513      -1.08551690      -0.55604493        0
O        1.72697800      -2.24141171      -0.29723070        0
C       -0.39833454      -1.21367474       0.21999477        0
O       -1.11744261      -2.34900197      -0.26302787        0
H       -2.55596100       1.95809737       0.96055833        0
H       -3.15319304      -0.79197163       0.62435894        0
H       -2.24681458      -0.08465548       1.98433674        0
H       -1.52778915       0.21729597      -0.98086507        0
H        0.46027589       1.56467136      -1.35857054        0
H        0.79697823       3.28387829      -0.00324263        0
H        2.00231518       0.09954869       0.88651634        0
H        3.19318611       1.20504008      -0.72692948        0
H        0.72359039      -1.09458665      -1.63644232        0
H        2.60700777      -2.02314794      -0.66694366        0
H       -0.17504303      -1.39687256       1.27872004        0
H       -0.46427668      -3.07857946      -0.28366348        0
O       -2.06374800       3.52659927       1.90453842        1
H       -2.84798099       3.86854960       1.47525945        1
H       -2.28704365       3.51104559       2.83519892        1
O       -5.54006438       1.83042222       1.22443638        2
H       -6.41818088       2.19221892       1.34379463        2
H       -4.95292235       2.57184200       1.37206018        2
O        1.87049870      -3.51354206      -2.34444622        3
H        0.95313326      -3.39019496      -2.10060613        3
H        2.35186523      -2.90593311      -1.78290419        3
29
Properties=species:S:1:pos:R:3:fragment_id:I:1 config_id=canonical_p3__mobley_9741965__cluster_3water__compressed molecule_id=mobley_9741965 smiles="C[C@@H](CCO[N+](=O)[O-])O[N+](=O)[O-]" split=canonical_prospective_3 chemical_role=stratum_3 category=cluster_3water motif=compressed regime=compressed conformer_index=0 n_solute_atoms=20 n_waters=3 pbc="F F F"
C       -2.08739369      -1.39956631       0.06819919        0
C       -1.07359480      -0.25900376       0.15709989        0
C        0.34610042      -0.82080729      -0.00938937        0
C        1.41947675       0.25933445       0.13341127        0
O        2.69011891      -0.37432431       0.00439392        0
N        3.76756133       0.53554993       0.13565119        0
O        4.86463456      -0.00679519       0.02179123        0
O        3.48520929       1.71620657       0.34445457        0
O       -1.29815409       0.66247976      -0.91212557        0
N       -2.27851334       1.64861388      -0.63504749        0
O       -2.44611747       2.42371968      -1.57378956        0
O       -2.81954227       1.61735954       0.47008323        0
H       -2.04272384      -1.88622184      -0.91254769        0
H       -3.11082035      -1.02993958       0.18650491        0
H       -1.90496349      -2.15225051       0.84151085        0
H       -1.12518600       0.22324224       1.14144043        0
H        0.45695911      -1.28868177      -0.99659906        0
H        0.53157429      -1.61150316       0.72855805        0
H        1.33000728       0.72951714       1.12041051        0
H        1.29536738       1.01307053      -0.65329728        0
O       -3.45375448       1.86613222      -3.64228287        1
H       -2.86313180       2.38045446      -3.09194723        1
H       -3.35817424       0.96864534      -3.32351404        1
O       -5.18306898       3.05455755      -5.29913098        2
H       -4.46764106       3.46025938      -4.80943643        2
H       -5.14058072       2.12799800      -5.06266958        2
O       -6.96148393       4.27968195      -7.07490045        3
H       -6.25713064       4.69107240      -6.57402504        3
H       -6.92050122       3.35484028      -6.83154857        3
29
Properties=species:S:1:pos:R:3:fragment_id:I:1 config_id=canonical_p3__mobley_9741965__cluster_3water__cooperative molecule_id=mobley_9741965 smiles="C[C@@H](CCO[N+](=O)[O-])O[N+](=O)[O-]" split=canonical_prospective_3 chemical_role=stratum_3 category=cluster_3water motif=cooperative regime=cooperative conformer_index=0 n_solute_atoms=20 n_waters=3 pbc="F F F"
C       -2.08739369      -1.39956631       0.06819919        0
C       -1.07359480      -0.25900376       0.15709989        0
C        0.34610042      -0.82080729      -0.00938937        0
C        1.41947675       0.25933445       0.13341127        0
O        2.69011891      -0.37432431       0.00439392        0
N        3.76756133       0.53554993       0.13565119        0
O        4.86463456      -0.00679519       0.02179123        0
O        3.48520929       1.71620657       0.34445457        0
O       -1.29815409       0.66247976      -0.91212557        0
N       -2.27851334       1.64861388      -0.63504749        0
O       -2.44611747       2.42371968      -1.57378956        0
O       -2.81954227       1.61735954       0.47008323        0
H       -2.04272384      -1.88622184      -0.91254769        0
H       -3.11082035      -1.02993958       0.18650491        0
H       -1.90496349      -2.15225051       0.84151085        0
H       -1.12518600       0.22324224       1.14144043        0
H        0.45695911      -1.28868177      -0.99659906        0
H        0.53157429      -1.61150316       0.72855805        0
H        1.33000728       0.72951714       1.12041051        0
H        1.29536738       1.01307053      -0.65329728        0
O        7.39537244      -0.86735719      -0.48310426        1
H        6.73728080      -0.81107832      -1.17591010        1
H        6.89421788      -0.80216620       0.32980784        1
O       10.19177858      -1.51482623      -1.00335288        2
H        9.46213939      -1.52875086      -1.62275954        2
H        9.79815363      -1.24082539      -0.17497207        2
O       13.06050610      -1.79347571      -1.26615998        3
H       12.40689896      -1.77780076      -1.96529075        3
H       12.55265589      -1.69633428      -0.46062689        3
29
Properties=species:S:1:pos:R:3:fragment_id:I:1 config_id=canonical_p3__mobley_9741965__cluster_3water__equilibrium molecule_id=mobley_9741965 smiles="C[C@@H](CCO[N+](=O)[O-])O[N+](=O)[O-]" split=canonical_prospective_3 chemical_role=stratum_3 category=cluster_3water motif=equilibrium regime=equilibrium conformer_index=0 n_solute_atoms=20 n_waters=3 pbc="F F F"
C       -2.08739369      -1.39956631       0.06819919        0
C       -1.07359480      -0.25900376       0.15709989        0
C        0.34610042      -0.82080729      -0.00938937        0
C        1.41947675       0.25933445       0.13341127        0
O        2.69011891      -0.37432431       0.00439392        0
N        3.76756133       0.53554993       0.13565119        0
O        4.86463456      -0.00679519       0.02179123        0
O        3.48520929       1.71620657       0.34445457        0
O       -1.29815409       0.66247976      -0.91212557        0
N       -2.27851334       1.64861388      -0.63504749        0
O       -2.44611747       2.42371968      -1.57378956        0
O       -2.81954227       1.61735954       0.47008323        0
H       -2.04272384      -1.88622184      -0.91254769        0
H       -3.11082035      -1.02993958       0.18650491        0
H       -1.90496349      -2.15225051       0.84151085        0
H       -1.12518600       0.22324224       1.14144043        0
H        0.45695911      -1.28868177      -0.99659906        0
H        0.53157429      -1.61150316       0.72855805        0
H        1.33000728       0.72951714       1.12041051        0
H        1.29536738       1.01307053      -0.65329728        0
O        5.49883557       2.83064389       0.53334198        1
H        5.50770825       2.67619673       1.47795788        1
H        6.41828417       2.77668622       0.27269917        1
O        1.85978577      -4.25425960       0.88345041        2
H        1.71503877      -3.97076034      -0.01927231        2
H        1.00515108      -4.57149476       1.17532922        2
O       -4.58872291       3.51124064      -1.30978527        3
H       -5.41429005       3.56299381      -1.79144111        3
H       -4.67284183       4.16759223      -0.61815066        3
29
Properties=species:S:1:pos:R:3:fragment_id:I:1 config_id=canonical_p3__mobley_9741965__cluster_3water__orientation molecule_id=mobley_9741965 smiles="C[C@@H](CCO[N+](=O)[O-])O[N+](=O)[O-]" split=canonical_prospective_3 chemical_role=stratum_3 category=cluster_3water motif=orientation regime=orientation conformer_index=0 n_solute_atoms=20 n_waters=3 pbc="F F F"
C       -2.08739369      -1.39956631       0.06819919        0
C       -1.07359480      -0.25900376       0.15709989        0
C        0.34610042      -0.82080729      -0.00938937        0
C        1.41947675       0.25933445       0.13341127        0
O        2.69011891      -0.37432431       0.00439392        0
N        3.76756133       0.53554993       0.13565119        0
O        4.86463456      -0.00679519       0.02179123        0
O        3.48520929       1.71620657       0.34445457        0
O       -1.29815409       0.66247976      -0.91212557        0
N       -2.27851334       1.64861388      -0.63504749        0
O       -2.44611747       2.42371968      -1.57378956        0
O       -2.81954227       1.61735954       0.47008323        0
H       -2.04272384      -1.88622184      -0.91254769        0
H       -3.11082035      -1.02993958       0.18650491        0
H       -1.90496349      -2.15225051       0.84151085        0
H       -1.12518600       0.22324224       1.14144043        0
H        0.45695911      -1.28868177      -0.99659906        0
H        0.53157429      -1.61150316       0.72855805        0
H        1.33000728       0.72951714       1.12041051        0
H        1.29536738       1.01307053      -0.65329728        0
O        5.49883557       2.83064389       0.53334198        1
H        4.74314836       2.89218907      -0.05093610        1
H        5.17578895       3.14569359       1.37750808        1
O        1.85978577      -4.25425960       0.88345041        2
H        1.93337313      -4.46386030      -0.04761580        2
H        0.99010649      -3.86472609       0.97374674        2
O       -4.58872291       3.51124064      -1.30978527        3
H       -4.76489607       4.18260734      -0.65064825        3
H       -4.38160624       4.00339004      -2.10421808        3
