28
Properties=species:S:1:pos:R:3:fragment_id:I:1 config_id=prospective__pros_azaaryl_sulfoxide__cluster_3water__compressed molecule_id=pros_azaaryl_sulfoxide smiles=COc1nc(S(=O)C)cc(F)n1 split=prospective chemical_role="diaza aryl ether sulfoxide fluoride" category=cluster_3water motif=compressed regime=compressed conformer_index=0 n_solute_atoms=19 n_waters=3 pbc="F F F"
C        3.17651484       1.35488885       0.39946798        0
O        1.91300562       1.48415014      -0.23962818        0
C        1.13971874       0.34845815      -0.14743627        0
N       -0.04567943       0.43584222      -0.75963935        0
C       -0.82488308      -0.65577074      -0.67645797        0
S       -2.37992174      -0.47230087      -1.54769839        0
O       -3.23271161      -1.62737381      -1.10533843        0
C       -2.96870904       1.00841351      -0.69220220        0
C       -0.47197492      -1.81039939      -0.03218182        0
C        0.76215736      -1.77239215       0.55360410        0
F        1.18670493      -2.86115596       1.21089413        0
N        1.59123028      -0.71762553       0.52010619        0
H        3.77597091       0.56098616      -0.05970864        0
H        3.71627687       2.29733540       0.26472412        0
H        3.06258256       1.18929449       1.47649839        0
H       -2.34912142       1.86674986      -0.96232667        0
H       -3.99739161       1.20170700      -1.00657950        0
H       -2.94781335       0.85219000       0.38930863        0
H       -1.10595590      -2.68299733       0.01716570        0
O       -5.77341778       2.37054203      -0.96942301        1
H       -4.91908686       2.79695149      -0.90215123        1
H       -5.57785508       1.43424360      -0.93292203        1
O       -8.43024389       3.12662847      -1.47465681        2
H       -7.67212398       3.69763405      -1.35040439        2
H       -8.07973883       2.24012753      -1.38808821        2
O      -11.22858364       3.93125261      -1.90884440        3
H      -10.46478542       4.49908119      -1.80679139        3
H      -10.87856108       3.04316017      -1.83807809        3
28
Properties=species:S:1:pos:R:3:fragment_id:I:1 config_id=prospective__pros_azaaryl_sulfoxide__cluster_3water__cooperative molecule_id=pros_azaaryl_sulfoxide smiles=COc1nc(S(=O)C)cc(F)n1 split=prospective chemical_role="diaza aryl ether sulfoxide fluoride" category=cluster_3water motif=cooperative regime=cooperative conformer_index=0 n_solute_atoms=19 n_waters=3 pbc="F F F"
C        3.17651484       1.35488885       0.39946798        0
O        1.91300562       1.48415014      -0.23962818        0
C        1.13971874       0.34845815      -0.14743627        0
N       -0.04567943       0.43584222      -0.75963935        0
C       -0.82488308      -0.65577074      -0.67645797        0
S       -2.37992174      -0.47230087      -1.54769839        0
O       -3.23271161      -1.62737381      -1.10533843        0
C       -2.96870904       1.00841351      -0.69220220        0
C       -0.47197492      -1.81039939      -0.03218182        0
C        0.76215736      -1.77239215       0.55360410        0
F        1.18670493      -2.86115596       1.21089413        0
N        1.59123028      -0.71762553       0.52010619        0
H        3.77597091       0.56098616      -0.05970864        0
H        3.71627687       2.29733540       0.26472412        0
H        3.06258256       1.18929449       1.47649839        0
H       -2.34912142       1.86674986      -0.96232667        0
H       -3.99739161       1.20170700      -1.00657950        0
H       -2.94781335       0.85219000       0.38930863        0
H       -1.10595590      -2.68299733       0.01716570        0
O        2.37302163      -5.12729071       1.95798227        1
H        1.46847156      -4.85879504       2.11901359        1
H        2.75591392      -4.39930136       1.46843467        1
O        3.67523932      -7.59276835       2.83048021        2
H        2.77531723      -7.31394468       2.99968253        2
H        4.05287729      -6.88275593       2.31134268        2
O        4.99608646      -9.81270055       3.91618182        3
H        4.12021368      -9.49036947       4.12874094        3
H        5.31960584      -9.20669777       3.24960274        3
28
Properties=species:S:1:pos:R:3:fragment_id:I:1 config_id=prospective__pros_azaaryl_sulfoxide__cluster_3water__equilibrium molecule_id=pros_azaaryl_sulfoxide smiles=COc1nc(S(=O)C)cc(F)n1 split=prospective chemical_role="diaza aryl ether sulfoxide fluoride" category=cluster_3water motif=equilibrium regime=equilibrium conformer_index=0 n_solute_atoms=19 n_waters=3 pbc="F F F"
C        3.17651484       1.35488885       0.39946798        0
O        1.91300562       1.48415014      -0.23962818        0
C        1.13971874       0.34845815      -0.14743627        0
N       -0.04567943       0.43584222      -0.75963935        0
C       -0.82488308      -0.65577074      -0.67645797        0
S       -2.37992174      -0.47230087      -1.54769839        0
O       -3.23271161      -1.62737381      -1.10533843        0
C       -2.96870904       1.00841351      -0.69220220        0
C       -0.47197492      -1.81039939      -0.03218182        0
C        0.76215736      -1.77239215       0.55360410        0
F        1.18670493      -2.86115596       1.21089413        0
N        1.59123028      -0.71762553       0.52010619        0
H        3.77597091       0.56098616      -0.05970864        0
H        3.71627687       2.29733540       0.26472412        0
H        3.06258256       1.18929449       1.47649839        0
H       -2.34912142       1.86674986      -0.96232667        0
H       -3.99739161       1.20170700      -1.00657950        0
H       -2.94781335       0.85219000       0.38930863        0
H       -1.10595590      -2.68299733       0.01716570        0
O        3.45943441      -1.49683897       2.02559942        1
H        2.73337853      -2.08206904       2.24142449        1
H        3.42902294      -0.81797670       2.69973071        1
O        6.64406530       2.46811331       1.08294676        2
H        6.25406526       3.31045017       1.31661409        2
H        6.11210848       2.15164958       0.35280672        2
O       -5.48379553      -1.18381086      -3.87777613        3
H       -4.75342147      -1.44333245      -3.31614090        3
H       -5.22255625      -0.33470735      -4.23415949        3
28
Properties=species:S:1:pos:R:3:fragment_id:I:1 config_id=prospective__pros_azaaryl_sulfoxide__cluster_3water__orientation molecule_id=pros_azaaryl_sulfoxide smiles=COc1nc(S(=O)C)cc(F)n1 split=prospective chemical_role="diaza aryl ether sulfoxide fluoride" category=cluster_3water motif=orientation regime=orientation conformer_index=0 n_solute_atoms=19 n_waters=3 pbc="F F F"
C        3.17651484       1.35488885       0.39946798        0
O        1.91300562       1.48415014      -0.23962818        0
C        1.13971874       0.34845815      -0.14743627        0
N       -0.04567943       0.43584222      -0.75963935        0
C       -0.82488308      -0.65577074      -0.67645797        0
S       -2.37992174      -0.47230087      -1.54769839        0
O       -3.23271161      -1.62737381      -1.10533843        0
C       -2.96870904       1.00841351      -0.69220220        0
C       -0.47197492      -1.81039939      -0.03218182        0
C        0.76215736      -1.77239215       0.55360410        0
F        1.18670493      -2.86115596       1.21089413        0
N        1.59123028      -0.71762553       0.52010619        0
H        3.77597091       0.56098616      -0.05970864        0
H        3.71627687       2.29733540       0.26472412        0
H        3.06258256       1.18929449       1.47649839        0
H       -2.34912142       1.86674986      -0.96232667        0
H       -3.99739161       1.20170700      -1.00657950        0
H       -2.94781335       0.85219000       0.38930863        0
H       -1.10595590      -2.68299733       0.01716570        0
O        3.45943441      -1.49683897       2.02559942        1
H        4.20213368      -1.98376895       2.38271121        1
H        3.65611396      -0.58091996       2.22217347        1
O        6.64406530       2.46811331       1.08294676        2
H        6.53710576       1.68608815       1.62445222        2
H        5.82958719       2.52750020       0.58361677        2
O       -5.48379553      -1.18381086      -3.87777613        3
H       -6.22352094      -1.53987830      -4.36996931        3
H       -5.68765384      -1.37936087      -2.96320857        3
27
Properties=species:S:1:pos:R:3:fragment_id:I:1 config_id=prospective__pros_cyano_cyclic_acetal__cluster_3water__compressed molecule_id=pros_cyano_cyclic_acetal smiles=COC1(C#N)CC(O)C1Cl split=prospective chemical_role="cyclic ether alcohol nitrile chloride" category=cluster_3water motif=compressed regime=compressed conformer_index=0 n_solute_atoms=18 n_waters=3 pbc="F F F"
C       -2.65598389      -0.00226191       0.22404731        0
O       -1.43982410      -0.54185535       0.73063575        0
C       -0.25573081      -0.44231724      -0.11444553        0
C       -0.40800086      -1.23828723      -1.32897479        0
N       -0.53076444      -1.83244665      -2.31893599        0
C        0.26958068       1.00596289      -0.36595692        0
C        1.70823395       0.48290146      -0.16323860        0
O        2.60045082       1.36774969       0.53860932        0
C        1.09115984      -0.68035026       0.65577328        0
Cl       1.93914931      -2.27344788       0.63422319        0
H       -3.40323963      -0.03446397       1.02128641        0
H       -2.51820104       1.03749348      -0.08471345        0
H       -3.01780967      -0.60011823      -0.61670985        0
H        0.06896770       1.42828302      -1.35592395        0
H       -0.05008189       1.73618985       0.38770047        0
H        2.16503984       0.15773634      -1.10727326        0
H        3.43228741       0.86913509       0.63955261        0
H        1.00476679      -0.43990310       1.72411120        0
O       -1.78076362      -3.15319247      -1.42136389        1
H       -2.05439701      -2.23597014      -1.41363119        1
H       -0.82494343      -3.11881332      -1.38318434        1
O       -2.68562407      -5.46718151      -2.79342673        2
H       -3.11596567      -4.61407697      -2.73641279        2
H       -1.88171794      -5.36497386      -2.28399530        2
O       -3.57063836      -7.64087269      -4.09955310        3
H       -3.99018301      -6.78266960      -4.03871240        3
H       -2.76499526      -7.55077605      -3.59057998        3
27
Properties=species:S:1:pos:R:3:fragment_id:I:1 config_id=prospective__pros_cyano_cyclic_acetal__cluster_3water__cooperative molecule_id=pros_cyano_cyclic_acetal smiles=COC1(C#N)CC(O)C1Cl split=prospective chemical_role="cyclic ether alcohol nitrile chloride" category=cluster_3water motif=cooperative regime=cooperative conformer_index=0 n_solute_atoms=18 n_waters=3 pbc="F F F"
C       -2.65598389      -0.00226191       0.22404731        0
O       -1.43982410      -0.54185535       0.73063575        0
C       -0.25573081      -0.44231724      -0.11444553        0
C       -0.40800086      -1.23828723      -1.32897479        0
N       -0.53076444      -1.83244665      -2.31893599        0
C        0.26958068       1.00596289      -0.36595692        0
C        1.70823395       0.48290146      -0.16323860        0
O        2.60045082       1.36774969       0.53860932        0
C        1.09115984      -0.68035026       0.65577328        0
Cl       1.93914931      -2.27344788       0.63422319        0
H       -3.40323963      -0.03446397       1.02128641        0
H       -2.51820104       1.03749348      -0.08471345        0
H       -3.01780967      -0.60011823      -0.61670985        0
H        0.06896770       1.42828302      -1.35592395        0
H       -0.05008189       1.73618985       0.38770047        0
H        2.16503984       0.15773634      -1.10727326        0
H        3.43228741       0.86913509       0.63955261        0
H        1.00476679      -0.43990310       1.72411120        0
O       -5.54247388      -1.43630461       2.04928841        1
H       -5.15016870      -0.57646695       1.89760553        1
H       -4.84250141      -2.05800667       1.84989702        1
O       -8.21968730      -2.17959069       2.65006361        2
H       -7.86583167      -1.29609932       2.54778439        2
H       -7.46998761      -2.75669733       2.50470150        2
O      -10.85474347      -3.18824899       3.20969581        3
H      -10.58346392      -2.27443053       3.12266092        3
H      -10.05260265      -3.69117891       3.06875809        3
27
Properties=species:S:1:pos:R:3:fragment_id:I:1 config_id=prospective__pros_cyano_cyclic_acetal__cluster_3water__equilibrium molecule_id=pros_cyano_cyclic_acetal smiles=COC1(C#N)CC(O)C1Cl split=prospective chemical_role="cyclic ether alcohol nitrile chloride" category=cluster_3water motif=equilibrium regime=equilibrium conformer_index=0 n_solute_atoms=18 n_waters=3 pbc="F F F"
C       -2.65598389      -0.00226191       0.22404731        0
O       -1.43982410      -0.54185535       0.73063575        0
C       -0.25573081      -0.44231724      -0.11444553        0
C       -0.40800086      -1.23828723      -1.32897479        0
N       -0.53076444      -1.83244665      -2.31893599        0
C        0.26958068       1.00596289      -0.36595692        0
C        1.70823395       0.48290146      -0.16323860        0
O        2.60045082       1.36774969       0.53860932        0
C        1.09115984      -0.68035026       0.65577328        0
Cl       1.93914931      -2.27344788       0.63422319        0
H       -3.40323963      -0.03446397       1.02128641        0
H       -2.51820104       1.03749348      -0.08471345        0
H       -3.01780967      -0.60011823      -0.61670985        0
H        0.06896770       1.42828302      -1.35592395        0
H       -0.05008189       1.73618985       0.38770047        0
H        2.16503984       0.15773634      -1.10727326        0
H        3.43228741       0.86913509       0.63955261        0
H        1.00476679      -0.43990310       1.72411120        0
O       -6.05004298       0.34961122       1.50963497        1
H       -6.11071358       1.29982539       1.60783852        1
H       -6.29241155       0.18659169       0.59809016        1
O        1.05978317      -3.95909204       1.82881427        2
H        0.48118606      -3.61462632       2.50910875        2
H        0.65809359      -4.78828580       1.56936286        2
O        0.08157816      -4.05698403      -4.36119231        3
H        0.18537768      -5.00853490      -4.35828822        3
H        0.71341350      -3.74467192      -3.71352179        3
27
Properties=species:S:1:pos:R:3:fragment_id:I:1 config_id=prospective__pros_cyano_cyclic_acetal__cluster_3water__orientation molecule_id=pros_cyano_cyclic_acetal smiles=COC1(C#N)CC(O)C1Cl split=prospective chemical_role="cyclic ether alcohol nitrile chloride" category=cluster_3water motif=orientation regime=orientation conformer_index=0 n_solute_atoms=18 n_waters=3 pbc="F F F"
C       -2.65598389      -0.00226191       0.22404731        0
O       -1.43982410      -0.54185535       0.73063575        0
C       -0.25573081      -0.44231724      -0.11444553        0
C       -0.40800086      -1.23828723      -1.32897479        0
N       -0.53076444      -1.83244665      -2.31893599        0
C        0.26958068       1.00596289      -0.36595692        0
C        1.70823395       0.48290146      -0.16323860        0
O        2.60045082       1.36774969       0.53860932        0
C        1.09115984      -0.68035026       0.65577328        0
Cl       1.93914931      -2.27344788       0.63422319        0
H       -3.40323963      -0.03446397       1.02128641        0
H       -2.51820104       1.03749348      -0.08471345        0
H       -3.01780967      -0.60011823      -0.61670985        0
H        0.06896770       1.42828302      -1.35592395        0
H       -0.05008189       1.73618985       0.38770047        0
H        2.16503984       0.15773634      -1.10727326        0
H        3.43228741       0.86913509       0.63955261        0
H        1.00476679      -0.43990310       1.72411120        0
O       -6.05004298       0.34961122       1.50963497        1
H       -6.31334923      -0.55622338       1.67200908        1
H       -5.48642541       0.30096671       0.73749458        1
O        1.05978317      -3.95909204       1.82881427        2
H        0.72625978      -3.89202805       2.72351892        2
H        1.09430011      -3.05471342       1.51714182        2
O        0.08157816      -4.05698403      -4.36119231        3
H       -0.75401852      -3.80736837      -3.96660132        3
H        0.42471813      -3.24362459      -4.73123721        3
24
Properties=species:S:1:pos:R:3:fragment_id:I:1 config_id=prospective__pros_halogen_oxazinanone__cluster_3water__compressed molecule_id=pros_halogen_oxazinanone smiles=O=C1N(CC#N)C(F)(Cl)CO1 split=prospective chemical_role="cyclic carbamate nitrile mixed halogen" category=cluster_3water motif=compressed regime=compressed conformer_index=0 n_solute_atoms=15 n_waters=3 pbc="F F F"
O        0.09696843       2.37260867      -0.90555753        0
C       -0.42330379       1.33250295      -0.54248844        0
N        0.21458936       0.14470283      -0.36526438        0
C        1.64753650      -0.04130838      -0.41681878        0
C        2.27202520       0.07208063       0.91301936        0
N        2.75393138       0.15036163       1.96634328        0
C       -0.69381380      -0.86558653       0.03016824        0
F       -0.23409045      -1.51833203       1.11867690        0
Cl      -0.91052238      -1.99290144      -1.31466412        0
C       -1.95415603      -0.08681462       0.34388367        0
O       -1.75126834       1.20781405      -0.24647931        0
H        1.86325101      -1.01750017      -0.86244581        0
H        2.07518342       0.72358592      -1.07461670        0
H       -2.09002240       0.05012124       1.42208005        0
H       -2.86630811      -0.53133475      -0.06583641        0
O       -0.41503151      -2.99249589       2.58477896        1
H       -0.89892397      -2.16925059       2.51884654        1
H        0.17045442      -2.98803847       1.82753515        1
O       -0.59013670      -5.20818373       4.37726598        2
H       -1.14158653      -4.42605834       4.35689941        2
H        0.03317229      -5.08104156       3.66203692        2
O       -0.79312670      -7.44668656       6.10722603        3
H       -1.34859733      -6.66733774       6.08991603        3
H       -0.15379590      -7.30125477       5.40984696        3
24
Properties=species:S:1:pos:R:3:fragment_id:I:1 config_id=prospective__pros_halogen_oxazinanone__cluster_3water__cooperative molecule_id=pros_halogen_oxazinanone smiles=O=C1N(CC#N)C(F)(Cl)CO1 split=prospective chemical_role="cyclic carbamate nitrile mixed halogen" category=cluster_3water motif=cooperative regime=cooperative conformer_index=0 n_solute_atoms=15 n_waters=3 pbc="F F F"
O        0.09696843       2.37260867      -0.90555753        0
C       -0.42330379       1.33250295      -0.54248844        0
N        0.21458936       0.14470283      -0.36526438        0
C        1.64753650      -0.04130838      -0.41681878        0
C        2.27202520       0.07208063       0.91301936        0
N        2.75393138       0.15036163       1.96634328        0
C       -0.69381380      -0.86558653       0.03016824        0
F       -0.23409045      -1.51833203       1.11867690        0
Cl      -0.91052238      -1.99290144      -1.31466412        0
C       -1.95415603      -0.08681462       0.34388367        0
O       -1.75126834       1.20781405      -0.24647931        0
H        1.86325101      -1.01750017      -0.86244581        0
H        2.07518342       0.72358592      -1.07461670        0
H       -2.09002240       0.05012124       1.42208005        0
H       -2.86630811      -0.53133475      -0.06583641        0
O       -5.53196171       0.22077961       0.76618742        1
H       -4.88783353       0.92513507       0.69397862        1
H       -5.01662205      -0.58325863       0.70153925        1
O       -8.17841749       0.12805853       0.95491058        2
H       -7.62081296       0.90500891       0.91420275        2
H       -7.56793865      -0.60796695       0.91232044        2
O      -11.06221063       0.28523263       1.36874847        3
H      -10.44233353       1.00951580       1.28273614        3
H      -10.52388968      -0.50217529       1.28855392        3
24
Properties=species:S:1:pos:R:3:fragment_id:I:1 config_id=prospective__pros_halogen_oxazinanone__cluster_3water__equilibrium molecule_id=pros_halogen_oxazinanone smiles=O=C1N(CC#N)C(F)(Cl)CO1 split=prospective chemical_role="cyclic carbamate nitrile mixed halogen" category=cluster_3water motif=equilibrium regime=equilibrium conformer_index=0 n_solute_atoms=15 n_waters=3 pbc="F F F"
O        0.09696843       2.37260867      -0.90555753        0
C       -0.42330379       1.33250295      -0.54248844        0
N        0.21458936       0.14470283      -0.36526438        0
C        1.64753650      -0.04130838      -0.41681878        0
C        2.27202520       0.07208063       0.91301936        0
N        2.75393138       0.15036163       1.96634328        0
C       -0.69381380      -0.86558653       0.03016824        0
F       -0.23409045      -1.51833203       1.11867690        0
Cl      -0.91052238      -1.99290144      -1.31466412        0
C       -1.95415603      -0.08681462       0.34388367        0
O       -1.75126834       1.20781405      -0.24647931        0
H        1.86325101      -1.01750017      -0.86244581        0
H        2.07518342       0.72358592      -1.07461670        0
H       -2.09002240       0.05012124       1.42208005        0
H       -2.86630811      -0.53133475      -0.06583641        0
O        4.24116001       0.23474421       3.10170219        1
H        4.91883687       0.73635104       2.64851733        1
H        4.13301407       0.68146661       3.94133032        1
O        3.51339730       1.73656440      -2.84616138        2
H        3.17968622       2.62921329      -2.75645787        2
H        4.22344460       1.80876769      -3.48401039        2
O       -0.87065867      -3.48303974       2.68918395        3
H       -1.44075149      -3.74873919       3.41073078        3
H       -1.14146376      -2.58757607       2.48659753        3
24
Properties=species:S:1:pos:R:3:fragment_id:I:1 config_id=prospective__pros_halogen_oxazinanone__cluster_3water__orientation molecule_id=pros_halogen_oxazinanone smiles=O=C1N(CC#N)C(F)(Cl)CO1 split=prospective chemical_role="cyclic carbamate nitrile mixed halogen" category=cluster_3water motif=orientation regime=orientation conformer_index=0 n_solute_atoms=15 n_waters=3 pbc="F F F"
O        0.09696843       2.37260867      -0.90555753        0
C       -0.42330379       1.33250295      -0.54248844        0
N        0.21458936       0.14470283      -0.36526438        0
C        1.64753650      -0.04130838      -0.41681878        0
C        2.27202520       0.07208063       0.91301936        0
N        2.75393138       0.15036163       1.96634328        0
C       -0.69381380      -0.86558653       0.03016824        0
F       -0.23409045      -1.51833203       1.11867690        0
Cl      -0.91052238      -1.99290144      -1.31466412        0
C       -1.95415603      -0.08681462       0.34388367        0
O       -1.75126834       1.20781405      -0.24647931        0
H        1.86325101      -1.01750017      -0.86244581        0
H        2.07518342       0.72358592      -1.07461670        0
H       -2.09002240       0.05012124       1.42208005        0
H       -2.86630811      -0.53133475      -0.06583641        0
O        4.24116001       0.23474421       3.10170219        1
H        3.63085131      -0.12556600       3.74507741        1
H        3.78988275       0.13907964       2.26299547        1
O        3.51339730       1.73656440      -2.84616138        2
H        3.09381924       2.49359447      -3.25492974        2
H        3.10894310       0.97984904      -3.27046139        2
O       -0.87065867      -3.48303974       2.68918395        3
H       -1.41466431      -3.26935269       1.93114203        3
H       -0.76974630      -2.65236143       3.15396571        3
27
Properties=species:S:1:pos:R:3:fragment_id:I:1 config_id=prospective__pros_heteroaryl_amide__cluster_3water__compressed molecule_id=pros_heteroaryl_amide smiles=O=C(N(C)C(F)Cl)c1nocc1 split=prospective chemical_role="heteroaryl amide mixed halogen" category=cluster_3water motif=compressed regime=compressed conformer_index=0 n_solute_atoms=18 n_waters=3 pbc="F F F"
O       -0.09406592      -2.06393236       0.13860694        0
C       -0.07456713      -0.83185540       0.09577631        0
N       -1.25836680      -0.11256570      -0.02418033        0
C       -1.37236909       1.31456697      -0.27491368        0
C       -2.48346197      -0.85481093       0.09985776        0
F       -3.42244077      -0.08190665       0.70746810        0
Cl      -3.05164004      -1.28240579      -1.52649655        0
C        1.21697731      -0.13127167       0.18389894        0
N        1.35905457       1.15281781       0.55555737        0
O        2.71576861       1.41253724       0.54727285        0
C        3.38857838       0.29087847       0.20035922        0
C        2.49530061      -0.71904214      -0.03089615        0
H       -2.31757081       1.53864951      -0.77899449        0
H       -1.34442132       1.84250132       0.68237121        0
H       -0.56469586       1.66180640      -0.92329719        0
H       -2.36828283      -1.77311088       0.68255786        0
H        4.46477407       0.37639853       0.17234797        0
H        2.71142900      -1.73925472      -0.31228770        0
O       -0.90447563      -4.06290449       0.72429879        1
H       -1.48171642      -3.29934490       0.72301312        1
H       -0.04076495      -3.71116247       0.50862950        1
O       -1.60627607      -6.67769507       0.20111846        2
H       -2.17495748      -5.90774278       0.20371995        2
H       -0.73936496      -6.33649357       0.42084215        2
O       -2.34472049      -9.37541201      -0.00054625        3
H       -2.91864003      -8.60935214       0.00013473        3
H       -1.46223627      -9.01421014       0.08303992        3
27
Properties=species:S:1:pos:R:3:fragment_id:I:1 config_id=prospective__pros_heteroaryl_amide__cluster_3water__cooperative molecule_id=pros_heteroaryl_amide smiles=O=C(N(C)C(F)Cl)c1nocc1 split=prospective chemical_role="heteroaryl amide mixed halogen" category=cluster_3water motif=cooperative regime=cooperative conformer_index=0 n_solute_atoms=18 n_waters=3 pbc="F F F"
O       -0.09406592      -2.06393236       0.13860694        0
C       -0.07456713      -0.83185540       0.09577631        0
N       -1.25836680      -0.11256570      -0.02418033        0
C       -1.37236909       1.31456697      -0.27491368        0
C       -2.48346197      -0.85481093       0.09985776        0
F       -3.42244077      -0.08190665       0.70746810        0
Cl      -3.05164004      -1.28240579      -1.52649655        0
C        1.21697731      -0.13127167       0.18389894        0
N        1.35905457       1.15281781       0.55555737        0
O        2.71576861       1.41253724       0.54727285        0
C        3.38857838       0.29087847       0.20035922        0
C        2.49530061      -0.71904214      -0.03089615        0
H       -2.31757081       1.53864951      -0.77899449        0
H       -1.34442132       1.84250132       0.68237121        0
H       -0.56469586       1.66180640      -0.92329719        0
H       -2.36828283      -1.77311088       0.68255786        0
H        4.46477407       0.37639853       0.17234797        0
H        2.71142900      -1.73925472      -0.31228770        0
O       -5.93318678      -0.39630838       1.24895323        1
H       -5.45668567       0.42615580       1.13612058        1
H       -5.27274498      -1.07640181       1.11658478        1
O       -8.56997240      -0.70200146       2.11551523        2
H       -8.09959136       0.11442326       1.94692048        2
H       -7.93385463      -1.39014536       1.92046653        2
O      -11.28302969      -1.12308077       2.73893327        3
H      -10.83166108      -0.28712782       2.62196799        3
H      -10.60524004      -1.78378303       2.59643568        3
27
Properties=species:S:1:pos:R:3:fragment_id:I:1 config_id=prospective__pros_heteroaryl_amide__cluster_3water__equilibrium molecule_id=pros_heteroaryl_amide smiles=O=C(N(C)C(F)Cl)c1nocc1 split=prospective chemical_role="heteroaryl amide mixed halogen" category=cluster_3water motif=equilibrium regime=equilibrium conformer_index=0 n_solute_atoms=18 n_waters=3 pbc="F F F"
O       -0.09406592      -2.06393236       0.13860694        0
C       -0.07456713      -0.83185540       0.09577631        0
N       -1.25836680      -0.11256570      -0.02418033        0
C       -1.37236909       1.31456697      -0.27491368        0
C       -2.48346197      -0.85481093       0.09985776        0
F       -3.42244077      -0.08190665       0.70746810        0
Cl      -3.05164004      -1.28240579      -1.52649655        0
C        1.21697731      -0.13127167       0.18389894        0
N        1.35905457       1.15281781       0.55555737        0
O        2.71576861       1.41253724       0.54727285        0
C        3.38857838       0.29087847       0.20035922        0
C        2.49530061      -0.71904214      -0.03089615        0
H       -2.31757081       1.53864951      -0.77899449        0
H       -1.34442132       1.84250132       0.68237121        0
H       -0.56469586       1.66180640      -0.92329719        0
H       -2.36828283      -1.77311088       0.68255786        0
H        4.46477407       0.37639853       0.17234797        0
H        2.71142900      -1.73925472      -0.31228770        0
O        7.60193046      -0.23719048       0.26186312        1
H        7.03187239       0.52928556       0.20038042        1
H        7.23757309      -0.75000997       0.98331424        1
O        7.28074296       2.18101390       0.82208693        2
H        7.53710600       3.10309800       0.83854122        2
H        6.34330214       2.19596218       0.62917995        2
O       -3.34253482       4.02637011      -0.88338734        3
H       -2.76061040       3.78884926      -1.60531507        3
H       -2.75923325       4.37736659      -0.21048869        3
27
Properties=species:S:1:pos:R:3:fragment_id:I:1 config_id=prospective__pros_heteroaryl_amide__cluster_3water__orientation molecule_id=pros_heteroaryl_amide smiles=O=C(N(C)C(F)Cl)c1nocc1 split=prospective chemical_role="heteroaryl amide mixed halogen" category=cluster_3water motif=orientation regime=orientation conformer_index=0 n_solute_atoms=18 n_waters=3 pbc="F F F"
O       -0.09406592      -2.06393236       0.13860694        0
C       -0.07456713      -0.83185540       0.09577631        0
N       -1.25836680      -0.11256570      -0.02418033        0
C       -1.37236909       1.31456697      -0.27491368        0
C       -2.48346197      -0.85481093       0.09985776        0
F       -3.42244077      -0.08190665       0.70746810        0
Cl      -3.05164004      -1.28240579      -1.52649655        0
C        1.21697731      -0.13127167       0.18389894        0
N        1.35905457       1.15281781       0.55555737        0
O        2.71576861       1.41253724       0.54727285        0
C        3.38857838       0.29087847       0.20035922        0
C        2.49530061      -0.71904214      -0.03089615        0
H       -2.31757081       1.53864951      -0.77899449        0
H       -1.34442132       1.84250132       0.68237121        0
H       -0.56469586       1.66180640      -0.92329719        0
H       -2.36828283      -1.77311088       0.68255786        0
H        4.46477407       0.37639853       0.17234797        0
H        2.71142900      -1.73925472      -0.31228770        0
O        7.60193046      -0.23719048       0.26186312        1
H        7.45060316      -1.11915973      -0.07793407        1
H        7.31445873      -0.27880039       1.17392697        1
O        7.28074296       2.18101390       0.82208693        2
H        6.41099566       2.25741038       1.21443251        2
H        7.13269129       2.30402910      -0.11555895        2
O       -3.34253482       4.02637011      -0.88338734        3
H       -3.80203542       4.86422195      -0.82775158        3
H       -3.85075499       3.51530223      -1.51327122        3
25
Properties=species:S:1:pos:R:3:fragment_id:I:1 config_id=prospective__pros_isoxazole_thioether__cluster_3water__compressed molecule_id=pros_isoxazole_thioether smiles=CSC1=NOC(C(O)F)=C1Cl split=prospective chemical_role="isoxazole thioether alcohol mixed halogen" category=cluster_3water motif=compressed regime=compressed conformer_index=0 n_solute_atoms=16 n_waters=3 pbc="F F F"
C       -3.28275780      -1.21645338      -0.60787425        0
S       -2.49996139       0.40996858      -0.56601707        0
C       -0.88630158       0.01838674      -0.01088239        0
N       -0.52096888      -1.22751609       0.30992265        0
O        0.80516923      -1.13690543       0.69692211        0
C        1.21781585       0.15748822       0.60862337        0
C        2.60759504       0.42657488       0.99631261        0
O        3.30520141       0.86945312      -0.14894365        0
F        2.69118196       1.45098725       1.88167702        0
C        0.17531731       0.93370255       0.16438718        0
Cl       0.17074555       2.60782426      -0.10869211        0
H       -3.30355340      -1.66429826       0.38961266        0
H       -4.31411518      -1.10674661      -0.95438340        0
H       -2.75911251      -1.88269675      -1.29919738        0
H        3.11345722      -0.44517153       1.41943222        0
H        3.48028718       1.80540244       0.05053706        0
O        2.19374337      -2.55728969       1.17252982        1
H        1.26904549      -2.53626937       1.41895185        1
H        2.32183078      -1.76345042       0.65325662        1
O        4.02924886      -4.84161456       1.44104383        2
H        3.07619996      -4.84220847       1.53009038        2
H        4.25140418      -3.93140835       1.24507569        2
O        5.91698592      -6.78229829       2.33171446        3
H        5.01351295      -6.66579227       2.62564435        3
H        6.04435298      -6.10093041       1.67160289        3
25
Properties=species:S:1:pos:R:3:fragment_id:I:1 config_id=prospective__pros_isoxazole_thioether__cluster_3water__cooperative molecule_id=pros_isoxazole_thioether smiles=CSC1=NOC(C(O)F)=C1Cl split=prospective chemical_role="isoxazole thioether alcohol mixed halogen" category=cluster_3water motif=cooperative regime=cooperative conformer_index=0 n_solute_atoms=16 n_waters=3 pbc="F F F"
C       -3.28275780      -1.21645338      -0.60787425        0
S       -2.49996139       0.40996858      -0.56601707        0
C       -0.88630158       0.01838674      -0.01088239        0
N       -0.52096888      -1.22751609       0.30992265        0
O        0.80516923      -1.13690543       0.69692211        0
C        1.21781585       0.15748822       0.60862337        0
C        2.60759504       0.42657488       0.99631261        0
O        3.30520141       0.86945312      -0.14894365        0
F        2.69118196       1.45098725       1.88167702        0
C        0.17531731       0.93370255       0.16438718        0
Cl       0.17074555       2.60782426      -0.10869211        0
H       -3.30355340      -1.66429826       0.38961266        0
H       -4.31411518      -1.10674661      -0.95438340        0
H       -2.75911251      -1.88269675      -1.29919738        0
H        3.11345722      -0.44517153       1.41943222        0
H        3.48028718       1.80540244       0.05053706        0
O       -3.39837867      -3.30183520       2.34743366        1
H       -3.37010303      -2.36205746       2.16785046        1
H       -2.60242968      -3.64743101       1.94337849        1
O       -4.82557684      -4.76015912       4.07105536        2
H       -4.92580307      -3.83039230       3.86680014        2
H       -4.09925072      -5.05017145       3.51917216        2
O       -6.56221488      -6.36389565       5.64663947        3
H       -6.63137883      -5.42591096       5.46878304        3
H       -5.77673676      -6.64038430       5.17461194        3
25
Properties=species:S:1:pos:R:3:fragment_id:I:1 config_id=prospective__pros_isoxazole_thioether__cluster_3water__equilibrium molecule_id=pros_isoxazole_thioether smiles=CSC1=NOC(C(O)F)=C1Cl split=prospective chemical_role="isoxazole thioether alcohol mixed halogen" category=cluster_3water motif=equilibrium regime=equilibrium conformer_index=0 n_solute_atoms=16 n_waters=3 pbc="F F F"
C       -3.28275780      -1.21645338      -0.60787425        0
S       -2.49996139       0.40996858      -0.56601707        0
C       -0.88630158       0.01838674      -0.01088239        0
N       -0.52096888      -1.22751609       0.30992265        0
O        0.80516923      -1.13690543       0.69692211        0
C        1.21781585       0.15748822       0.60862337        0
C        2.60759504       0.42657488       0.99631261        0
O        3.30520141       0.86945312      -0.14894365        0
F        2.69118196       1.45098725       1.88167702        0
C        0.17531731       0.93370255       0.16438718        0
Cl       0.17074555       2.60782426      -0.10869211        0
H       -3.30355340      -1.66429826       0.38961266        0
H       -4.31411518      -1.10674661      -0.95438340        0
H       -2.75911251      -1.88269675      -1.29919738        0
H        3.11345722      -0.44517153       1.41943222        0
H        3.48028718       1.80540244       0.05053706        0
O       -5.65913610       0.55624560      -2.23810990        1
H       -5.41025849       0.36454325      -3.14229018        1
H       -5.41995526       1.47458751      -2.11292004        1
O        4.37543996       2.35347112       3.19826504        2
H        4.25516024       2.67853433       4.09050858        2
H        4.91665280       3.01783702       2.77172260        2
O        5.66352440       1.01050084      -0.74796636        3
H        6.51838440       0.74801378      -1.08935583        3
H        5.21687150       1.40514286      -1.49695949        3
25
Properties=species:S:1:pos:R:3:fragment_id:I:1 config_id=prospective__pros_isoxazole_thioether__cluster_3water__orientation molecule_id=pros_isoxazole_thioether smiles=CSC1=NOC(C(O)F)=C1Cl split=prospective chemical_role="isoxazole thioether alcohol mixed halogen" category=cluster_3water motif=orientation regime=orientation conformer_index=0 n_solute_atoms=16 n_waters=3 pbc="F F F"
C       -3.28275780      -1.21645338      -0.60787425        0
S       -2.49996139       0.40996858      -0.56601707        0
C       -0.88630158       0.01838674      -0.01088239        0
N       -0.52096888      -1.22751609       0.30992265        0
O        0.80516923      -1.13690543       0.69692211        0
C        1.21781585       0.15748822       0.60862337        0
C        2.60759504       0.42657488       0.99631261        0
O        3.30520141       0.86945312      -0.14894365        0
F        2.69118196       1.45098725       1.88167702        0
C        0.17531731       0.93370255       0.16438718        0
Cl       0.17074555       2.60782426      -0.10869211        0
H       -3.30355340      -1.66429826       0.38961266        0
H       -4.31411518      -1.10674661      -0.95438340        0
H       -2.75911251      -1.88269675      -1.29919738        0
H        3.11345722      -0.44517153       1.41943222        0
H        3.48028718       1.80540244       0.05053706        0
O       -5.65913610       0.55624560      -2.23810990        1
H       -6.34461578      -0.10913235      -2.17793000        1
H       -5.56021944       0.88054240      -1.34296806        1
O        4.37543996       2.35347112       3.19826504        2
H        4.91084616       3.13268802       3.34790818        2
H        3.97586039       2.49794260       2.34053781        2
O        5.66352440       1.01050084      -0.74796636        3
H        6.10658437       0.35224228      -0.21259231        3
H        5.41511085       0.54345576      -1.54570783        3
27
Properties=species:S:1:pos:R:3:fragment_id:I:1 config_id=prospective__pros_polyfunctional_oxane__cluster_3water__compressed molecule_id=pros_polyfunctional_oxane smiles=N#CC1(O)COC(CCl)C1F split=prospective chemical_role="cyclic ether alcohol nitrile mixed halogen" category=cluster_3water motif=compressed regime=compressed conformer_index=0 n_solute_atoms=18 n_waters=3 pbc="F F F"
N       -3.21252295       1.70658089      -0.38336507        0
C       -2.37639760       0.90906755      -0.27117256        0
C       -1.30786399      -0.08567677      -0.12234304        0
O       -1.80385321      -1.29843708       0.47719741        0
C       -0.63916449      -0.41011482      -1.45654125        0
O        0.74477495      -0.73462730      -1.18483609        0
C        0.99689717      -0.44906041       0.20483658        0
C        2.40141066       0.10439133       0.42107852        0
Cl       2.66076139       1.67209707      -0.39224942        0
C       -0.13476680       0.44710115       0.67896017        0
F       -0.35129965       0.28550860       2.00988781        0
H       -1.98938283      -1.09068137       1.41376189        0
H       -0.63137307       0.44289773      -2.14465680        0
H       -1.09575806      -1.26666412      -1.96271654        0
H        0.94272026      -1.40850284       0.73588718        0
H        2.60314818       0.25015232       1.48628376        0
H        3.14721713      -0.58233298       0.00995842        0
H        0.04545291       1.50830103       0.48002903        0
O        3.20835660      -1.49651536       2.62511104        1
H        2.60153046      -0.75739682       2.66631358        1
H        3.06227168      -1.87901854       1.75990450        1
O        5.36925836      -2.21987397       4.10269850        2
H        4.70148953      -1.56965440       4.32071490        2
H        5.10470791      -2.55800106       3.24717822        2
O        7.42795163      -3.20946840       5.82227213        3
H        6.74409089      -2.57365527       6.03276678        3
H        7.26808377      -3.43970915       4.90703265        3
27
Properties=species:S:1:pos:R:3:fragment_id:I:1 config_id=prospective__pros_polyfunctional_oxane__cluster_3water__cooperative molecule_id=pros_polyfunctional_oxane smiles=N#CC1(O)COC(CCl)C1F split=prospective chemical_role="cyclic ether alcohol nitrile mixed halogen" category=cluster_3water motif=cooperative regime=cooperative conformer_index=0 n_solute_atoms=18 n_waters=3 pbc="F F F"
N       -3.21252295       1.70658089      -0.38336507        0
C       -2.37639760       0.90906755      -0.27117256        0
C       -1.30786399      -0.08567677      -0.12234304        0
O       -1.80385321      -1.29843708       0.47719741        0
C       -0.63916449      -0.41011482      -1.45654125        0
O        0.74477495      -0.73462730      -1.18483609        0
C        0.99689717      -0.44906041       0.20483658        0
C        2.40141066       0.10439133       0.42107852        0
Cl       2.66076139       1.67209707      -0.39224942        0
C       -0.13476680       0.44710115       0.67896017        0
F       -0.35129965       0.28550860       2.00988781        0
H       -1.98938283      -1.09068137       1.41376189        0
H       -0.63137307       0.44289773      -2.14465680        0
H       -1.09575806      -1.26666412      -1.96271654        0
H        0.94272026      -1.40850284       0.73588718        0
H        2.60314818       0.25015232       1.48628376        0
H        3.14721713      -0.58233298       0.00995842        0
H        0.04545291       1.50830103       0.48002903        0
O        4.07691849      -2.83866493       1.47397283        1
H        3.19554869      -2.77419362       1.84175345        1
H        4.07796296      -2.22014443       0.74345032        1
O        6.22873250      -4.43739342       2.57665425        2
H        5.37631085      -4.25101947       2.97019448        2
H        6.21129275      -3.97748837       1.73735988        2
O        8.28547086      -6.10661663       3.46927765        3
H        7.40234698      -6.02153477       3.82856184        3
H        8.30640392      -5.49195517       2.73580308        3
27
Properties=species:S:1:pos:R:3:fragment_id:I:1 config_id=prospective__pros_polyfunctional_oxane__cluster_3water__equilibrium molecule_id=pros_polyfunctional_oxane smiles=N#CC1(O)COC(CCl)C1F split=prospective chemical_role="cyclic ether alcohol nitrile mixed halogen" category=cluster_3water motif=equilibrium regime=equilibrium conformer_index=0 n_solute_atoms=18 n_waters=3 pbc="F F F"
N       -3.21252295       1.70658089      -0.38336507        0
C       -2.37639760       0.90906755      -0.27117256        0
C       -1.30786399      -0.08567677      -0.12234304        0
O       -1.80385321      -1.29843708       0.47719741        0
C       -0.63916449      -0.41011482      -1.45654125        0
O        0.74477495      -0.73462730      -1.18483609        0
C        0.99689717      -0.44906041       0.20483658        0
C        2.40141066       0.10439133       0.42107852        0
Cl       2.66076139       1.67209707      -0.39224942        0
C       -0.13476680       0.44710115       0.67896017        0
F       -0.35129965       0.28550860       2.00988781        0
H       -1.98938283      -1.09068137       1.41376189        0
H       -0.63137307       0.44289773      -2.14465680        0
H       -1.09575806      -1.26666412      -1.96271654        0
H        0.94272026      -1.40850284       0.73588718        0
H        2.60314818       0.25015232       1.48628376        0
H        3.14721713      -0.58233298       0.00995842        0
H        0.04545291       1.50830103       0.48002903        0
O       -1.99512921      -1.01442426      -5.38607724        1
H       -1.74907502      -1.22269410      -4.48479324        1
H       -1.29785620      -1.39591729      -5.91946759        1
O       -5.46676978       2.44546763      -0.52264704        2
H       -6.16944757       2.72004160      -1.11178616        2
H       -5.50463296       1.48907616      -0.53330468        2
O       -0.94260357       0.34572764       4.64449533        3
H       -0.09818736       0.68261999       4.34500134        3
H       -0.72392362      -0.23971006       5.36952885        3
27
Properties=species:S:1:pos:R:3:fragment_id:I:1 config_id=prospective__pros_polyfunctional_oxane__cluster_3water__orientation molecule_id=pros_polyfunctional_oxane smiles=N#CC1(O)COC(CCl)C1F split=prospective chemical_role="cyclic ether alcohol nitrile mixed halogen" category=cluster_3water motif=orientation regime=orientation conformer_index=0 n_solute_atoms=18 n_waters=3 pbc="F F F"
N       -3.21252295       1.70658089      -0.38336507        0
C       -2.37639760       0.90906755      -0.27117256        0
C       -1.30786399      -0.08567677      -0.12234304        0
O       -1.80385321      -1.29843708       0.47719741        0
C       -0.63916449      -0.41011482      -1.45654125        0
O        0.74477495      -0.73462730      -1.18483609        0
C        0.99689717      -0.44906041       0.20483658        0
C        2.40141066       0.10439133       0.42107852        0
Cl       2.66076139       1.67209707      -0.39224942        0
C       -0.13476680       0.44710115       0.67896017        0
F       -0.35129965       0.28550860       2.00988781        0
H       -1.98938283      -1.09068137       1.41376189        0
H       -0.63137307       0.44289773      -2.14465680        0
H       -1.09575806      -1.26666412      -1.96271654        0
H        0.94272026      -1.40850284       0.73588718        0
H        2.60314818       0.25015232       1.48628376        0
H        3.14721713      -0.58233298       0.00995842        0
H        0.04545291       1.50830103       0.48002903        0
O       -1.99512921      -1.01442426      -5.38607724        1
H       -2.66849451      -1.68054235      -5.24788282        1
H       -1.94664236      -0.91585212      -6.33695283        1
O       -5.46676978       2.44546763      -0.52264704        2
H       -4.99164059       1.72838215      -0.94249523        2
H       -4.98309858       2.61267595       0.28626296        2
O       -0.94260357       0.34572764       4.64449533        3
H       -1.38843014       0.87862875       5.30289256        3
H       -1.38572044      -0.50191684       4.68161829        3
30
Properties=species:S:1:pos:R:3:fragment_id:I:1 config_id=prospective__pros_sulfonyl_piperidinol__cluster_3water__compressed molecule_id=pros_sulfonyl_piperidinol smiles=CS(=O)(=O)N1CC(F)C(O)C1 split=prospective chemical_role="sulfonamide cyclic alcohol fluoride" category=cluster_3water motif=compressed regime=compressed conformer_index=0 n_solute_atoms=21 n_waters=3 pbc="F F F"
C        2.83289071       0.33093212       0.24918190        0
S        1.26934887       1.18655646       0.26223666        0
O        1.41247418       2.41485279      -0.48612286        0
O        0.72293269       1.18888696       1.60420872        0
N        0.27509504       0.14941367      -0.63803698        0
C        0.03566807      -1.22042285      -0.05758706        0
C       -1.47185622      -1.45033373      -0.09970460        0
F       -1.80581718      -2.02530384      -1.28829918        0
C       -2.04689322      -0.04941711      -0.04160861        0
O       -2.06736389       0.44652247       1.29934007        0
C       -1.08195402       0.72568406      -0.93834555        0
H        2.73063839      -0.62478347       0.76454485        0
H        3.14796662       0.19022734      -0.78633015        0
H        3.55831272       0.95589567       0.77483809        0
H        0.38894034      -1.27609730       0.97664886        0
H        0.57283941      -1.96094693      -0.65721794        0
H       -1.80963051      -2.10558922       0.70789620        0
H       -3.06736606      -0.00675422      -0.43276768        0
H       -1.17578289       0.78232982       1.53770647        0
H       -1.29023822       0.54610143      -1.99915208        0
H       -1.13020481       1.80224587      -0.75142912        0
O       -2.89079874       1.82759419      -2.27001599        1
H       -2.13382756       2.24128456      -1.85518258        1
H       -2.80059553       0.89782302      -2.06116011        1
O       -4.88957452       2.60393627      -3.89946575        2
H       -4.23654127       3.15589027      -3.46920283        2
H       -4.67295068       1.71419981      -3.62076343        2
O       -6.89235755       3.52889594      -5.76816256        3
H       -6.24432926       4.05263532      -5.29700630        3
H       -6.72866926       2.63027565      -5.48194663        3
30
Properties=species:S:1:pos:R:3:fragment_id:I:1 config_id=prospective__pros_sulfonyl_piperidinol__cluster_3water__cooperative molecule_id=pros_sulfonyl_piperidinol smiles=CS(=O)(=O)N1CC(F)C(O)C1 split=prospective chemical_role="sulfonamide cyclic alcohol fluoride" category=cluster_3water motif=cooperative regime=cooperative conformer_index=0 n_solute_atoms=21 n_waters=3 pbc="F F F"
C        2.83289071       0.33093212       0.24918190        0
S        1.26934887       1.18655646       0.26223666        0
O        1.41247418       2.41485279      -0.48612286        0
O        0.72293269       1.18888696       1.60420872        0
N        0.27509504       0.14941367      -0.63803698        0
C        0.03566807      -1.22042285      -0.05758706        0
C       -1.47185622      -1.45033373      -0.09970460        0
F       -1.80581718      -2.02530384      -1.28829918        0
C       -2.04689322      -0.04941711      -0.04160861        0
O       -2.06736389       0.44652247       1.29934007        0
C       -1.08195402       0.72568406      -0.93834555        0
H        2.73063839      -0.62478347       0.76454485        0
H        3.14796662       0.19022734      -0.78633015        0
H        3.55831272       0.95589567       0.77483809        0
H        0.38894034      -1.27609730       0.97664886        0
H        0.57283941      -1.96094693      -0.65721794        0
H       -1.80963051      -2.10558922       0.70789620        0
H       -3.06736606      -0.00675422      -0.43276768        0
H       -1.17578289       0.78232982       1.53770647        0
H       -1.29023822       0.54610143      -1.99915208        0
H       -1.13020481       1.80224587      -0.75142912        0
O       -2.86637196      -4.16271915      -2.19234738        1
H       -3.25693472      -3.29019244      -2.14346281        1
H       -1.98877197      -4.05368334      -1.82606704        1
O       -3.82148602      -6.46136937      -3.12396271        2
H       -4.26560376      -5.61422416      -3.08740781        2
H       -2.95628111      -6.29509415      -2.74979048        2
O       -5.20987930      -8.76984430      -4.12624698        3
H       -5.53482267      -7.87157976      -4.06489175        3
H       -4.31891883      -8.72699488      -3.77899318        3
30
Properties=species:S:1:pos:R:3:fragment_id:I:1 config_id=prospective__pros_sulfonyl_piperidinol__cluster_3water__equilibrium molecule_id=pros_sulfonyl_piperidinol smiles=CS(=O)(=O)N1CC(F)C(O)C1 split=prospective chemical_role="sulfonamide cyclic alcohol fluoride" category=cluster_3water motif=equilibrium regime=equilibrium conformer_index=0 n_solute_atoms=21 n_waters=3 pbc="F F F"
C        2.83289071       0.33093212       0.24918190        0
S        1.26934887       1.18655646       0.26223666        0
O        1.41247418       2.41485279      -0.48612286        0
O        0.72293269       1.18888696       1.60420872        0
N        0.27509504       0.14941367      -0.63803698        0
C        0.03566807      -1.22042285      -0.05758706        0
C       -1.47185622      -1.45033373      -0.09970460        0
F       -1.80581718      -2.02530384      -1.28829918        0
C       -2.04689322      -0.04941711      -0.04160861        0
O       -2.06736389       0.44652247       1.29934007        0
C       -1.08195402       0.72568406      -0.93834555        0
H        2.73063839      -0.62478347       0.76454485        0
H        3.14796662       0.19022734      -0.78633015        0
H        3.55831272       0.95589567       0.77483809        0
H        0.38894034      -1.27609730       0.97664886        0
H        0.57283941      -1.96094693      -0.65721794        0
H       -1.80963051      -2.10558922       0.70789620        0
H       -3.06736606      -0.00675422      -0.43276768        0
H       -1.17578289       0.78232982       1.53770647        0
H       -1.29023822       0.54610143      -1.99915208        0
H       -1.13020481       1.80224587      -0.75142912        0
O       -3.99967376       1.29576085       2.94193489        1
H       -3.80369385       2.22479852       3.06323089        1
H       -4.94827799       1.23397181       3.05402402        1
O        6.76481965       1.41773301       0.51420751        2
H        5.85077362       1.28888803       0.26092771        2
H        7.22043421       1.58872886      -0.31005436        2
O        3.48834368       3.40331492       0.85664035        3
H        4.33211247       2.95334505       0.81405897        3
H        3.16353719       3.38995964      -0.04366750        3
30
Properties=species:S:1:pos:R:3:fragment_id:I:1 config_id=prospective__pros_sulfonyl_piperidinol__cluster_3water__orientation molecule_id=pros_sulfonyl_piperidinol smiles=CS(=O)(=O)N1CC(F)C(O)C1 split=prospective chemical_role="sulfonamide cyclic alcohol fluoride" category=cluster_3water motif=orientation regime=orientation conformer_index=0 n_solute_atoms=21 n_waters=3 pbc="F F F"
C        2.83289071       0.33093212       0.24918190        0
S        1.26934887       1.18655646       0.26223666        0
O        1.41247418       2.41485279      -0.48612286        0
O        0.72293269       1.18888696       1.60420872        0
N        0.27509504       0.14941367      -0.63803698        0
C        0.03566807      -1.22042285      -0.05758706        0
C       -1.47185622      -1.45033373      -0.09970460        0
F       -1.80581718      -2.02530384      -1.28829918        0
C       -2.04689322      -0.04941711      -0.04160861        0
O       -2.06736389       0.44652247       1.29934007        0
C       -1.08195402       0.72568406      -0.93834555        0
H        2.73063839      -0.62478347       0.76454485        0
H        3.14796662       0.19022734      -0.78633015        0
H        3.55831272       0.95589567       0.77483809        0
H        0.38894034      -1.27609730       0.97664886        0
H        0.57283941      -1.96094693      -0.65721794        0
H       -1.80963051      -2.10558922       0.70789620        0
H       -3.06736606      -0.00675422      -0.43276768        0
H       -1.17578289       0.78232982       1.53770647        0
H       -1.29023822       0.54610143      -1.99915208        0
H       -1.13020481       1.80224587      -0.75142912        0
O       -3.99967376       1.29576085       2.94193489        1
H       -3.16203322       1.71826957       2.75199664        1
H       -3.76769854       0.39664998       3.17435471        1
O        6.76481965       1.41773301       0.51420751        2
H        6.88412450       1.54529212       1.45533814        2
H        6.77097444       2.30266771       0.14939999        2
O        3.48834368       3.40331492       0.85664035        3
H        3.28067245       3.72048958       1.73556283        3
H        2.93353839       3.92434650       0.27616724        3
20
Properties=species:S:1:pos:R:3:fragment_id:I:1 config_id=prospective__prospective_diverse_01__cluster_3water__compressed molecule_id=prospective_diverse_01 smiles=NCC(=O)N split=prospective chemical_role=nan category=cluster_3water motif=compressed regime=compressed conformer_index=0 n_solute_atoms=11 n_waters=3 pbc="F F F"
N       -1.01935812       0.99614502       0.08786156        0
C       -0.77266571      -0.46118841       0.14245376        0
C        0.69639084      -0.78343811      -0.14435695        0
O        1.08690947      -1.87926205      -0.53026822        0
N        1.56472812       0.23999885       0.10511018        0
H       -2.00730605       1.15685685       0.28614860        0
H       -0.88241045       1.29988146      -0.87795359        0
H       -1.39721767      -0.96827069      -0.59911900        0
H       -1.01585707      -0.83659750       1.14083420        0
H        1.19210486       1.12655508       0.42773841        0
H        2.55468177       0.10931950      -0.03844896        0
O        4.43746289       1.48242689       0.23374249        1
H        4.20039357       0.57127195       0.06103854        1
H        3.59994942       1.92883589       0.35832989        1
O        7.13705941       1.70831626       0.23050043        2
H        6.61633526       0.90546072       0.25288743        2
H        6.49010050       2.41346565       0.20951575        2
O        9.90867602       2.13283194      -0.23262721        3
H        9.45035921       2.11959542       0.60761224        3
H        9.22421893       1.97103508      -0.88191306        3
20
Properties=species:S:1:pos:R:3:fragment_id:I:1 config_id=prospective__prospective_diverse_01__cluster_3water__cooperative molecule_id=prospective_diverse_01 smiles=NCC(=O)N split=prospective chemical_role=nan category=cluster_3water motif=cooperative regime=cooperative conformer_index=0 n_solute_atoms=11 n_waters=3 pbc="F F F"
N       -1.01935812       0.99614502       0.08786156        0
C       -0.77266571      -0.46118841       0.14245376        0
C        0.69639084      -0.78343811      -0.14435695        0
O        1.08690947      -1.87926205      -0.53026822        0
N        1.56472812       0.23999885       0.10511018        0
H       -2.00730605       1.15685685       0.28614860        0
H       -0.88241045       1.29988146      -0.87795359        0
H       -1.39721767      -0.96827069      -0.59911900        0
H       -1.01585707      -0.83659750       1.14083420        0
H        1.19210486       1.12655508       0.42773841        0
H        2.55468177       0.10931950      -0.03844896        0
O       -2.69782466       3.84056017       1.41703733        1
H       -1.81683192       3.80104012       1.04485217        1
H       -3.02637760       2.94388752       1.35174604        1
O       -4.65193504       5.76188285       2.16298653        2
H       -3.73676442       5.91727944       1.92943465        2
H       -4.76089649       4.81380434       2.08878145        2
O       -6.33241995       7.87090368       3.21935737        3
H       -5.44125253       7.94720081       2.87843035        3
H       -6.54368290       6.94132149       3.13288916        3
20
Properties=species:S:1:pos:R:3:fragment_id:I:1 config_id=prospective__prospective_diverse_01__cluster_3water__equilibrium molecule_id=prospective_diverse_01 smiles=NCC(=O)N split=prospective chemical_role=nan category=cluster_3water motif=equilibrium regime=equilibrium conformer_index=0 n_solute_atoms=11 n_waters=3 pbc="F F F"
N       -1.01935812       0.99614502       0.08786156        0
C       -0.77266571      -0.46118841       0.14245376        0
C        0.69639084      -0.78343811      -0.14435695        0
O        1.08690947      -1.87926205      -0.53026822        0
N        1.56472812       0.23999885       0.10511018        0
H       -2.00730605       1.15685685       0.28614860        0
H       -0.88241045       1.29988146      -0.87795359        0
H       -1.39721767      -0.96827069      -0.59911900        0
H       -1.01585707      -0.83659750       1.14083420        0
H        1.19210486       1.12655508       0.42773841        0
H        2.55468177       0.10931950      -0.03844896        0
O       -3.64419244       3.80671233      -1.11015907        1
H       -3.54208006       2.86645701      -0.96276558        1
H       -4.46662689       4.03003039      -0.67431224        1
O        4.14160360       0.51265671       1.62686148        2
H        3.96230982       1.17818890       0.96266837        2
H        5.06270218       0.64148522       1.85316318        2
O        2.26428569      -3.53335569      -1.03188325        3
H        2.87772199      -2.81340667      -1.17885661        3
H        2.81919839      -4.27768096      -0.79889480        3
20
Properties=species:S:1:pos:R:3:fragment_id:I:1 config_id=prospective__prospective_diverse_01__cluster_3water__orientation molecule_id=prospective_diverse_01 smiles=NCC(=O)N split=prospective chemical_role=nan category=cluster_3water motif=orientation regime=orientation conformer_index=0 n_solute_atoms=11 n_waters=3 pbc="F F F"
N       -1.01935812       0.99614502       0.08786156        0
C       -0.77266571      -0.46118841       0.14245376        0
C        0.69639084      -0.78343811      -0.14435695        0
O        1.08690947      -1.87926205      -0.53026822        0
N        1.56472812       0.23999885       0.10511018        0
H       -2.00730605       1.15685685       0.28614860        0
H       -0.88241045       1.29988146      -0.87795359        0
H       -1.39721767      -0.96827069      -0.59911900        0
H       -1.01585707      -0.83659750       1.14083420        0
H        1.19210486       1.12655508       0.42773841        0
H        2.55468177       0.10931950      -0.03844896        0
O       -3.64419244       3.80671233      -1.11015907        1
H       -3.69038864       4.24640961      -1.95913731        1
H       -4.55245143       3.58480501      -0.90508689        1
O        4.14160360       0.51265671       1.62686148        2
H        4.62104556       1.22293962       1.20040465        2
H        4.24837021      -0.23551764       1.03943670        2
O        2.26428569      -3.53335569      -1.03188325        3
H        2.31924128      -4.33931529      -1.54534292        3
H        3.01529631      -3.01407234      -1.31921527        3
18
Properties=species:S:1:pos:R:3:fragment_id:I:1 config_id=prospective__prospective_diverse_02__cluster_3water__compressed molecule_id=prospective_diverse_02 smiles=OCCI split=prospective chemical_role=nan category=cluster_3water motif=compressed regime=compressed conformer_index=0 n_solute_atoms=9 n_waters=3 pbc="F F F"
O       -1.45306628       0.42999847      -0.54234022        0
C       -0.58658591      -0.43805968       0.18178416        0
C        0.87449460      -0.16453248      -0.16025607        0
I        1.50790534       1.72089778       0.65929860        0
H       -1.22385999       1.34217714      -0.28754044        0
H       -0.84412617      -1.46225099      -0.10596244        0
H       -0.79235240      -0.32889585       1.25172438        0
H        1.50600082      -0.95928090       0.24984576        0
H        1.01159000      -0.14005350      -1.24655373        0
O       -3.53122660       0.41603005      -1.00165423        1
H       -2.96413076       1.17680903      -0.87575943        1
H       -2.95419503      -0.33705864      -0.87467454        1
O       -6.13397705       1.54649150      -1.80403116        2
H       -5.32669243       2.01975699      -1.60267784        2
H       -5.90704489       0.62403112      -1.68655573        2
O       -8.63236627       2.28367381      -2.50845142        3
H       -7.88312962       2.85123452      -2.32747870        3
H       -8.29670915       1.39600105      -2.38353859        3
18
Properties=species:S:1:pos:R:3:fragment_id:I:1 config_id=prospective__prospective_diverse_02__cluster_3water__cooperative molecule_id=prospective_diverse_02 smiles=OCCI split=prospective chemical_role=nan category=cluster_3water motif=cooperative regime=cooperative conformer_index=0 n_solute_atoms=9 n_waters=3 pbc="F F F"
O       -1.45306628       0.42999847      -0.54234022        0
C       -0.58658591      -0.43805968       0.18178416        0
C        0.87449460      -0.16453248      -0.16025607        0
I        1.50790534       1.72089778       0.65929860        0
H       -1.22385999       1.34217714      -0.28754044        0
H       -0.84412617      -1.46225099      -0.10596244        0
H       -0.79235240      -0.32889585       1.25172438        0
H        1.50600082      -0.95928090       0.24984576        0
H        1.01159000      -0.14005350      -1.24655373        0
O        3.53857123       3.29411022       1.16215658        1
H        3.53899626       2.47934289       0.65977639        1
H        2.62909776       3.40461284       1.43942724        1
O        5.50782820       5.07777932       1.30697482        2
H        5.58163620       4.13347786       1.16884814        2
H        4.56683229       5.23661890       1.38132890        2
O        7.72000804       6.81150852       1.68509527        3
H        7.72574510       5.92405328       1.32645600        3
H        6.80023268       6.98261382       1.88750105        3
18
Properties=species:S:1:pos:R:3:fragment_id:I:1 config_id=prospective__prospective_diverse_02__cluster_3water__equilibrium molecule_id=prospective_diverse_02 smiles=OCCI split=prospective chemical_role=nan category=cluster_3water motif=equilibrium regime=equilibrium conformer_index=0 n_solute_atoms=9 n_waters=3 pbc="F F F"
O       -1.45306628       0.42999847      -0.54234022        0
C       -0.58658591      -0.43805968       0.18178416        0
C        0.87449460      -0.16453248      -0.16025607        0
I        1.50790534       1.72089778       0.65929860        0
H       -1.22385999       1.34217714      -0.28754044        0
H       -0.84412617      -1.46225099      -0.10596244        0
H       -0.79235240      -0.32889585       1.25172438        0
H        1.50600082      -0.95928090       0.24984576        0
H        1.01159000      -0.14005350      -1.24655373        0
O        2.86282633       3.47381979       1.21930752        1
H        2.17944519       4.04328278       1.57276750        1
H        3.48574196       3.37135733       1.93882778        1
O       -2.51830064       0.53443974      -2.49171137        2
H       -1.71133874       0.81425154      -2.92385680        2
H       -3.15093984       0.43850802      -3.20360785        2
O       -4.11877467       1.33399329      -0.87090287        3
H       -3.70329360       0.97397645      -0.08732441        3
H       -4.16626031       0.59559431      -1.47814574        3
18
Properties=species:S:1:pos:R:3:fragment_id:I:1 config_id=prospective__prospective_diverse_02__cluster_3water__orientation molecule_id=prospective_diverse_02 smiles=OCCI split=prospective chemical_role=nan category=cluster_3water motif=orientation regime=orientation conformer_index=0 n_solute_atoms=9 n_waters=3 pbc="F F F"
O       -1.45306628       0.42999847      -0.54234022        0
C       -0.58658591      -0.43805968       0.18178416        0
C        0.87449460      -0.16453248      -0.16025607        0
I        1.50790534       1.72089778       0.65929860        0
H       -1.22385999       1.34217714      -0.28754044        0
H       -0.84412617      -1.46225099      -0.10596244        0
H       -0.79235240      -0.32889585       1.25172438        0
H        1.50600082      -0.95928090       0.24984576        0
H        1.01159000      -0.14005350      -1.24655373        0
O        2.86282633       3.47381979       1.21930752        1
H        2.45117117       3.81323123       0.42459264        1
H        3.52034708       2.85419439       0.90313878        1
O       -2.51830064       0.53443974      -2.49171137        2
H       -3.44347184       0.29954982      -2.56324337        2
H       -2.50386034       1.26850900      -1.87757325        2
O       -4.11877467       1.33399329      -0.87090287        3
H       -4.18510254       2.16333561      -0.39759138        3
H       -3.73627634       1.56992633      -1.71604337        3
23
Properties=species:S:1:pos:R:3:fragment_id:I:1 config_id=prospective__prospective_diverse_03__cluster_3water__compressed molecule_id=prospective_diverse_03 smiles=O1CCOCC1 split=prospective chemical_role=nan category=cluster_3water motif=compressed regime=compressed conformer_index=0 n_solute_atoms=14 n_waters=3 pbc="F F F"
O        0.78583174       1.07704767       0.44056782        0
C       -0.41933223       1.31675135      -0.30141180        0
C       -1.39217026       0.14974482      -0.13655817        0
O       -0.78583020      -1.07704960      -0.56984882        0
C        0.41933304      -1.31675136       0.17213470        0
C        1.39217104      -0.14974543       0.00727230        0
H       -0.86747494       2.24288828       0.07038446        0
H       -0.15568256       1.46051770      -1.35562206        0
H       -2.29113666       0.31415554      -0.73790771        0
H       -1.69426549       0.03710232       0.91110096        0
H        0.86747600      -2.24289142      -0.19965558        0
H        0.15568108      -1.46051151       1.22634730        0
H        2.29114442      -0.31415514       0.60861325        0
H        1.69425502      -0.03710322      -1.04039088        0
O        4.27588038      -0.43003018      -0.66026476        1
H        3.63627558       0.15866963      -1.06097673        1
H        3.77899139      -0.90826744       0.00352911        1
O        7.17204284      -0.67588370      -0.89123381        2
H        6.52626911      -0.67099436      -1.59776352        2
H        6.65392029      -0.58197057      -0.09188333        2
O        9.95123752      -0.98889743      -1.06319547        3
H        9.28557550      -1.32467457      -1.66351175        3
H        9.45469171      -0.52222373      -0.39096801        3
23
Properties=species:S:1:pos:R:3:fragment_id:I:1 config_id=prospective__prospective_diverse_03__cluster_3water__cooperative molecule_id=prospective_diverse_03 smiles=O1CCOCC1 split=prospective chemical_role=nan category=cluster_3water motif=cooperative regime=cooperative conformer_index=0 n_solute_atoms=14 n_waters=3 pbc="F F F"
O        0.78583174       1.07704767       0.44056782        0
C       -0.41933223       1.31675135      -0.30141180        0
C       -1.39217026       0.14974482      -0.13655817        0
O       -0.78583020      -1.07704960      -0.56984882        0
C        0.41933304      -1.31675136       0.17213470        0
C        1.39217104      -0.14974543       0.00727230        0
H       -0.86747494       2.24288828       0.07038446        0
H       -0.15568256       1.46051770      -1.35562206        0
H       -2.29113666       0.31415554      -0.73790771        0
H       -1.69426549       0.03710232       0.91110096        0
H        0.86747600      -2.24289142      -0.19965558        0
H        0.15568108      -1.46051151       1.22634730        0
H        2.29114442      -0.31415514       0.60861325        0
H        1.69425502      -0.03710322      -1.04039088        0
O       -2.39627829      -2.76921049      -1.57715422        1
H       -2.52888721      -1.82763322      -1.46724994        1
H       -1.52187979      -2.93136040      -1.22308288        1
O       -4.09432224      -4.67679589      -2.93730259        2
H       -4.24953092      -3.74091885      -2.80972409        2
H       -3.25146193      -4.84016395      -2.51406599        2
O       -5.58884803      -6.77182323      -4.29945238        3
H       -5.83276292      -5.85227902      -4.19373670        3
H       -4.74349360      -6.84826907      -3.85700038        3
23
Properties=species:S:1:pos:R:3:fragment_id:I:1 config_id=prospective__prospective_diverse_03__cluster_3water__equilibrium molecule_id=prospective_diverse_03 smiles=O1CCOCC1 split=prospective chemical_role=nan category=cluster_3water motif=equilibrium regime=equilibrium conformer_index=0 n_solute_atoms=14 n_waters=3 pbc="F F F"
O        0.78583174       1.07704767       0.44056782        0
C       -0.41933223       1.31675135      -0.30141180        0
C       -1.39217026       0.14974482      -0.13655817        0
O       -0.78583020      -1.07704960      -0.56984882        0
C        0.41933304      -1.31675136       0.17213470        0
C        1.39217104      -0.14974543       0.00727230        0
H       -0.86747494       2.24288828       0.07038446        0
H       -0.15568256       1.46051770      -1.35562206        0
H       -2.29113666       0.31415554      -0.73790771        0
H       -1.69426549       0.03710232       0.91110096        0
H        0.86747600      -2.24289142      -0.19965558        0
H        0.15568108      -1.46051151       1.22634730        0
H        2.29114442      -0.31415514       0.60861325        0
H        1.69425502      -0.03710322      -1.04039088        0
O        1.26005375      -5.21140911       0.67807179        1
H        0.61930793      -4.53890618       0.44695182        1
H        2.06494603      -4.72491571       0.85612920        1
O       -4.09659072      -2.42289627      -1.15717109        2
H       -4.49748187      -2.82282939      -1.92890396        2
H       -4.08146335      -1.48603776      -1.35287277        2
O        5.00157094      -1.05655274      -1.03337545        3
H        4.34398384      -1.13991593      -0.34282376        3
H        4.50248643      -1.11356693      -1.84817351        3
23
Properties=species:S:1:pos:R:3:fragment_id:I:1 config_id=prospective__prospective_diverse_03__cluster_3water__orientation molecule_id=prospective_diverse_03 smiles=O1CCOCC1 split=prospective chemical_role=nan category=cluster_3water motif=orientation regime=orientation conformer_index=0 n_solute_atoms=14 n_waters=3 pbc="F F F"
O        0.78583174       1.07704767       0.44056782        0
C       -0.41933223       1.31675135      -0.30141180        0
C       -1.39217026       0.14974482      -0.13655817        0
O       -0.78583020      -1.07704960      -0.56984882        0
C        0.41933304      -1.31675136       0.17213470        0
C        1.39217104      -0.14974543       0.00727230        0
H       -0.86747494       2.24288828       0.07038446        0
H       -0.15568256       1.46051770      -1.35562206        0
H       -2.29113666       0.31415554      -0.73790771        0
H       -1.69426549       0.03710232       0.91110096        0
H        0.86747600      -2.24289142      -0.19965558        0
H        0.15568108      -1.46051151       1.22634730        0
H        2.29114442      -0.31415514       0.60861325        0
H        1.69425502      -0.03710322      -1.04039088        0
O        1.26005375      -5.21140911       0.67807179        1
H        1.66795303      -5.87082929       0.11680977        1
H        0.38597616      -5.08854700       0.30776771        1
O       -4.09659072      -2.42289627      -1.15717109        2
H       -3.46231132      -2.13348196      -0.50130461        2
H       -4.94874899      -2.20585493      -0.77908222        2
O        5.00157094      -1.05655274      -1.03337545        3
H        4.95474340      -1.66163283      -1.77358968        3
H        4.75189661      -1.58496276      -0.27530063        3
17
Properties=species:S:1:pos:R:3:fragment_id:I:1 config_id=prospective__prospective_diverse_04__cluster_3water__compressed molecule_id=prospective_diverse_04 smiles=c1nccs1 split=prospective chemical_role=nan category=cluster_3water motif=compressed regime=compressed conformer_index=0 n_solute_atoms=8 n_waters=3 pbc="F F F"
C        1.37214998      -0.09055001      -0.28230593        0
N        0.70441497       1.02370028      -0.07672554        0
C       -0.64841489       0.74505612      -0.05788454        0
C       -0.98849381      -0.57730164      -0.24951018        0
S        0.43204978      -1.51502684      -0.46220649        0
H        2.45268217      -0.11536374      -0.33614612        0
H       -1.35238758       1.55289076       0.10132035        0
H       -1.97200062      -1.02340493      -0.27399795        0
O       -3.43907473      -2.52734974      -0.39778337        1
H       -3.45194042      -1.57035708      -0.38257302        1
H       -2.51034245      -2.75554219      -0.35757891        1
O       -5.40720814      -4.51804487      -1.00584700        2
H       -5.53070112      -3.57062911      -0.94766878        2
H       -4.47866124      -4.65117797      -0.81530021        2
O       -7.61961998      -6.12212962      -1.12678541        3
H       -7.58964263      -5.16551758      -1.11173211        3
H       -6.70186969      -6.39160222      -1.09003250        3
17
Properties=species:S:1:pos:R:3:fragment_id:I:1 config_id=prospective__prospective_diverse_04__cluster_3water__cooperative molecule_id=prospective_diverse_04 smiles=c1nccs1 split=prospective chemical_role=nan category=cluster_3water motif=cooperative regime=cooperative conformer_index=0 n_solute_atoms=8 n_waters=3 pbc="F F F"
C        1.37214998      -0.09055001      -0.28230593        0
N        0.70441497       1.02370028      -0.07672554        0
C       -0.64841489       0.74505612      -0.05788454        0
C       -0.98849381      -0.57730164      -0.24951018        0
S        0.43204978      -1.51502684      -0.46220649        0
H        2.45268217      -0.11536374      -0.33614612        0
H       -1.35238758       1.55289076       0.10132035        0
H       -1.97200062      -1.02340493      -0.27399795        0
O       -3.89781897      -1.49638804      -1.97275649        1
H       -3.60991925      -0.61421827      -1.73797557        1
H       -3.21283599      -2.07121394      -1.63128125        1
O       -6.31922877      -1.84219887      -3.32770748        2
H       -5.90548804      -1.01899583      -3.06811704        2
H       -5.71826098      -2.52048750      -3.01949635        2
O       -8.71010480      -2.45458121      -4.58844544        3
H       -8.37192820      -1.58801348      -4.36277136        3
H       -8.03741141      -3.06223174      -4.28107551        3
17
Properties=species:S:1:pos:R:3:fragment_id:I:1 config_id=prospective__prospective_diverse_04__cluster_3water__equilibrium molecule_id=prospective_diverse_04 smiles=c1nccs1 split=prospective chemical_role=nan category=cluster_3water motif=equilibrium regime=equilibrium conformer_index=0 n_solute_atoms=8 n_waters=3 pbc="F F F"
C        1.37214998      -0.09055001      -0.28230593        0
N        0.70441497       1.02370028      -0.07672554        0
C       -0.64841489       0.74505612      -0.05788454        0
C       -0.98849381      -0.57730164      -0.24951018        0
S        0.43204978      -1.51502684      -0.46220649        0
H        2.45268217      -0.11536374      -0.33614612        0
H       -1.35238758       1.55289076       0.10132035        0
H       -1.97200062      -1.02340493      -0.27399795        0
O       -1.84772307      -3.51925410      -0.61869847        1
H       -2.23141712      -3.70944038      -1.47475915        1
H       -1.62978496      -4.37834620      -0.25718002        1
O        1.78997329       2.73929500       0.49411307        2
H        2.34135756       3.47966953       0.74719959        2
H        0.91426108       2.97704806       0.79879889        2
O       -5.04872997      -1.70927639      -0.37171795        3
H       -4.77343149      -2.12205213       0.44685323        3
H       -4.26501268      -1.26127236      -0.69001251        3
17
Properties=species:S:1:pos:R:3:fragment_id:I:1 config_id=prospective__prospective_diverse_04__cluster_3water__orientation molecule_id=prospective_diverse_04 smiles=c1nccs1 split=prospective chemical_role=nan category=cluster_3water motif=orientation regime=orientation conformer_index=0 n_solute_atoms=8 n_waters=3 pbc="F F F"
C        1.37214998      -0.09055001      -0.28230593        0
N        0.70441497       1.02370028      -0.07672554        0
C       -0.64841489       0.74505612      -0.05788454        0
C       -0.98849381      -0.57730164      -0.24951018        0
S        0.43204978      -1.51502684      -0.46220649        0
H        2.45268217      -0.11536374      -0.33614612        0
H       -1.35238758       1.55289076       0.10132035        0
H       -1.97200062      -1.02340493      -0.27399795        0
O       -1.84772307      -3.51925410      -0.61869847        1
H       -0.95032313      -3.50236946      -0.28610246        1
H       -1.75724824      -3.75728119      -1.54140603        1
O        1.78997329       2.73929500       0.49411307        2
H        1.80975531       2.67317368      -0.46059552        2
H        2.02315837       3.64956207       0.67651488        2
O       -5.04872997      -1.70927639      -0.37171795        3
H       -5.47758212      -2.18788632      -1.08111927        3
H       -5.66136682      -1.00776541      -0.15083274        3
24
Properties=species:S:1:pos:R:3:fragment_id:I:1 config_id=prospective__prospective_diverse_05__cluster_3water__compressed molecule_id=prospective_diverse_05 smiles=O=S1(=O)CCCC1 split=prospective chemical_role=nan category=cluster_3water motif=compressed regime=compressed conformer_index=0 n_solute_atoms=15 n_waters=3 pbc="F F F"
O       -1.87190928       1.00890348       1.35090769        0
S       -1.33947517       0.62250975       0.06087132        0
O       -2.07239471       0.82417850      -1.17166223        0
C       -0.81480000      -1.08317618       0.14737168        0
C        0.63632065      -1.08047239      -0.31977724        0
C        1.25685804       0.20063347       0.23374364        0
C        0.29248937       1.32591556      -0.12363579        0
H       -0.89038910      -1.40408293       1.19042334        0
H       -1.45699836      -1.70158511      -0.48284367        0
H        1.16814641      -1.97292757       0.02309030        0
H        0.67596306      -1.06505191      -1.41568521        0
H        2.25371432       0.38264655      -0.17859367        0
H        1.35231444       0.12242750       1.32351224        0
H        0.41101455       1.62686768      -1.16863899        0
H        0.39914580       2.19321361       0.53091659        0
O        1.23951861       3.75075141      -1.40163391        1
H        1.68111680       3.23196451      -0.72926272        1
H        0.41526625       3.28976544      -1.55762051        1
O        2.03214871       6.16028061      -2.28386933        2
H        2.53836980       5.52710913      -1.77488413        2
H        1.18009175       5.74213999      -2.40792258        2
O        2.66289788       8.52707559      -3.45883529        3
H        3.18634002       8.02530748      -2.83396016        3
H        1.86739511       8.00797558      -3.57691313        3
24
Properties=species:S:1:pos:R:3:fragment_id:I:1 config_id=prospective__prospective_diverse_05__cluster_3water__cooperative molecule_id=prospective_diverse_05 smiles=O=S1(=O)CCCC1 split=prospective chemical_role=nan category=cluster_3water motif=cooperative regime=cooperative conformer_index=0 n_solute_atoms=15 n_waters=3 pbc="F F F"
O       -1.87190928       1.00890348       1.35090769        0
S       -1.33947517       0.62250975       0.06087132        0
O       -2.07239471       0.82417850      -1.17166223        0
C       -0.81480000      -1.08317618       0.14737168        0
C        0.63632065      -1.08047239      -0.31977724        0
C        1.25685804       0.20063347       0.23374364        0
C        0.29248937       1.32591556      -0.12363579        0
H       -0.89038910      -1.40408293       1.19042334        0
H       -1.45699836      -1.70158511      -0.48284367        0
H        1.16814641      -1.97292757       0.02309030        0
H        0.67596306      -1.06505191      -1.41568521        0
H        2.25371432       0.38264655      -0.17859367        0
H        1.35231444       0.12242750       1.32351224        0
H        0.41101455       1.62686768      -1.16863899        0
H        0.39914580       2.19321361       0.53091659        0
O        0.75514939       4.44752878      -0.53057947        1
H        1.41258021       3.77715984      -0.34450948        1
H       -0.07266337       3.96831383      -0.56678596        1
O        1.28990957       6.98429660      -1.40389873        2
H        1.87729967       6.38892864      -0.93834347        2
H        0.47346593       6.49309219      -1.49538564        2
O        1.75416002       9.69575118      -1.95572020        3
H        2.38873697       9.03938794      -1.66808980        3
H        0.92569569       9.21971520      -2.01289046        3
24
Properties=species:S:1:pos:R:3:fragment_id:I:1 config_id=prospective__prospective_diverse_05__cluster_3water__equilibrium molecule_id=prospective_diverse_05 smiles=O=S1(=O)CCCC1 split=prospective chemical_role=nan category=cluster_3water motif=equilibrium regime=equilibrium conformer_index=0 n_solute_atoms=15 n_waters=3 pbc="F F F"
O       -1.87190928       1.00890348       1.35090769        0
S       -1.33947517       0.62250975       0.06087132        0
O       -2.07239471       0.82417850      -1.17166223        0
C       -0.81480000      -1.08317618       0.14737168        0
C        0.63632065      -1.08047239      -0.31977724        0
C        1.25685804       0.20063347       0.23374364        0
C        0.29248937       1.32591556      -0.12363579        0
H       -0.89038910      -1.40408293       1.19042334        0
H       -1.45699836      -1.70158511      -0.48284367        0
H        1.16814641      -1.97292757       0.02309030        0
H        0.67596306      -1.06505191      -1.41568521        0
H        2.25371432       0.38264655      -0.17859367        0
H        1.35231444       0.12242750       1.32351224        0
H        0.41101455       1.62686768      -1.16863899        0
H        0.39914580       2.19321361       0.53091659        0
O       -3.67056828       1.60071131       2.27115696        1
H       -4.59910123       1.73380459       2.46179950        1
H       -3.29269993       2.47990262       2.29283629        1
O        2.72785415      -2.62235329      -1.60149400        2
H        2.37354505      -2.56938553      -2.48912642        2
H        2.99601633      -1.72669004      -1.39629111        2
O       -3.57739311       2.34125147      -1.13932225        3
H       -3.03702797       3.00169210      -1.57297595        3
H       -4.21696672       2.08135615      -1.80236965        3
24
Properties=species:S:1:pos:R:3:fragment_id:I:1 config_id=prospective__prospective_diverse_05__cluster_3water__orientation molecule_id=prospective_diverse_05 smiles=O=S1(=O)CCCC1 split=prospective chemical_role=nan category=cluster_3water motif=orientation regime=orientation conformer_index=0 n_solute_atoms=15 n_waters=3 pbc="F F F"
O       -1.87190928       1.00890348       1.35090769        0
S       -1.33947517       0.62250975       0.06087132        0
O       -2.07239471       0.82417850      -1.17166223        0
C       -0.81480000      -1.08317618       0.14737168        0
C        0.63632065      -1.08047239      -0.31977724        0
C        1.25685804       0.20063347       0.23374364        0
C        0.29248937       1.32591556      -0.12363579        0
H       -0.89038910      -1.40408293       1.19042334        0
H       -1.45699836      -1.70158511      -0.48284367        0
H        1.16814641      -1.97292757       0.02309030        0
H        0.67596306      -1.06505191      -1.41568521        0
H        2.25371432       0.38264655      -0.17859367        0
H        1.35231444       0.12242750       1.32351224        0
H        0.41101455       1.62686768      -1.16863899        0
H        0.39914580       2.19321361       0.53091659        0
O       -3.67056828       1.60071131       2.27115696        1
H       -3.58208451       2.21402585       1.54160385        1
H       -2.87439703       1.72564509       2.78762065        1
O        2.72785415      -2.62235329      -1.60149400        2
H        3.31925893      -2.38538627      -0.88712794        2
H        1.90876197      -2.17253634      -1.39416684        2
O       -3.57739311       2.34125147      -1.13932225        3
H       -2.73134592       2.78490107      -1.19941416        3
H       -3.39448836       1.43910596      -1.40183162        3
