26
Properties=species:S:1:pos:R:3:fragment_id:I:1 config_id=train__dev_amino_alcohol_halogen__cluster_4water__compact molecule_id=dev_amino_alcohol_halogen smiles=NCC(O)C(F)Cl split=train chemical_role="amine alcohol mixed halogen" category=cluster_4water motif=compact regime=equilibrium conformer_index=0 n_solute_atoms=14 n_waters=4 nextgen_pool_status=ORIGINAL_DEVELOPMENT pbc="F F F"
N        1.49465528       0.74755177      -1.11139244        0
C        0.89430077      -0.07623447      -0.04591109        0
C       -0.63922291       0.02999456      -0.11451570        0
O       -1.01898582       1.41545057      -0.09155202        0
C       -1.36202945      -0.77965333       0.96957771        0
F       -1.13004734      -2.10527341       0.75492287        0
Cl      -0.85342699      -0.37868233       2.62840839        0
H        2.51123485       0.72243287      -1.00864730        0
H        1.30458421       0.31783336      -2.01863142        0
H        1.26765359       0.31806584       0.90413225        0
H        1.22266534      -1.11581358      -0.14473078        0
H       -0.96426961      -0.36112130      -1.08706641        0
H       -0.28540415       1.87653331      -0.55266166        0
H       -2.44170778      -0.61108387       0.91806760        0
O       -4.89980750       0.34104398       2.32283212        1
H       -4.32886826       0.10028660       1.59324585        1
H       -5.01663482       1.28693774       2.23412918        1
O       -1.97090403       4.18911104      -0.22152176        2
H       -1.87094742       3.41509845      -0.77572843        2
H       -2.57331375       3.91341345       0.46936550        2
O       -5.10794523      -1.00834815       0.31992855        3
H       -6.05050361      -0.95371332       0.16235139        3
H       -4.75549459      -0.19883923      -0.04980878        3
O       -2.51847569      -4.70777200       1.71915298        4
H       -2.27553729      -5.60010921       1.96602760        4
H       -1.85458555      -4.44609852       1.08118064        4
26
Properties=species:S:1:pos:R:3:fragment_id:I:1 config_id=train__dev_amino_alcohol_halogen__cluster_4water__cooperative molecule_id=dev_amino_alcohol_halogen smiles=NCC(O)C(F)Cl split=train chemical_role="amine alcohol mixed halogen" category=cluster_4water motif=cooperative regime=cooperative conformer_index=0 n_solute_atoms=14 n_waters=4 nextgen_pool_status=ORIGINAL_DEVELOPMENT pbc="F F F"
N        1.49465528       0.74755177      -1.11139244        0
C        0.89430077      -0.07623447      -0.04591109        0
C       -0.63922291       0.02999456      -0.11451570        0
O       -1.01898582       1.41545057      -0.09155202        0
C       -1.36202945      -0.77965333       0.96957771        0
F       -1.13004734      -2.10527341       0.75492287        0
Cl      -0.85342699      -0.37868233       2.62840839        0
H        2.51123485       0.72243287      -1.00864730        0
H        1.30458421       0.31783336      -2.01863142        0
H        1.26765359       0.31806584       0.90413225        0
H        1.22266534      -1.11581358      -0.14473078        0
H       -0.96426961      -0.36112130      -1.08706641        0
H       -0.28540415       1.87653331      -0.55266166        0
H       -2.44170778      -0.61108387       0.91806760        0
O       -1.85896433       3.95787239      -0.44155734        1
H       -0.96404283       3.65141551      -0.29516221        1
H       -2.38939558       3.16110111      -0.43607534        1
O       -3.00762131       6.53897451      -1.00994708        2
H       -2.09611600       6.33699037      -0.79877817        2
H       -3.45206715       5.69144758      -0.99000102        2
O       -4.14909736       9.12737917      -1.46977347        3
H       -3.23213369       8.91366262      -1.29733588        3
H       -4.59937661       8.28284477      -1.45421428        3
O       -5.07288324      11.71652800      -1.78498011        4
H       -4.16899301      11.42838475      -1.65774894        4
H       -5.58557369      10.90823271      -1.77872930        4
26
Properties=species:S:1:pos:R:3:fragment_id:I:1 config_id=train__dev_amino_alcohol_halogen__cluster_4water__orientation molecule_id=dev_amino_alcohol_halogen smiles=NCC(O)C(F)Cl split=train chemical_role="amine alcohol mixed halogen" category=cluster_4water motif=orientation regime=orientation conformer_index=0 n_solute_atoms=14 n_waters=4 nextgen_pool_status=ORIGINAL_DEVELOPMENT pbc="F F F"
N        1.49465528       0.74755177      -1.11139244        0
C        0.89430077      -0.07623447      -0.04591109        0
C       -0.63922291       0.02999456      -0.11451570        0
O       -1.01898582       1.41545057      -0.09155202        0
C       -1.36202945      -0.77965333       0.96957771        0
F       -1.13004734      -2.10527341       0.75492287        0
Cl      -0.85342699      -0.37868233       2.62840839        0
H        2.51123485       0.72243287      -1.00864730        0
H        1.30458421       0.31783336      -2.01863142        0
H        1.26765359       0.31806584       0.90413225        0
H        1.22266534      -1.11581358      -0.14473078        0
H       -0.96426961      -0.36112130      -1.08706641        0
H       -0.28540415       1.87653331      -0.55266166        0
H       -2.44170778      -0.61108387       0.91806760        0
O       -3.07298911      -3.18804058       2.30255930        1
H       -3.57968571      -2.76809809       1.60747750        1
H       -3.07288405      -4.11699199       2.07173230        1
O        4.52666432       0.15692015      -1.82837998        2
H        4.96152006       1.00120836      -1.70875655        2
H        4.26069183      -0.10313300      -0.94641466        2
O        2.41002385      -4.13181383      -0.08864189        3
H        2.21578932      -4.41716211      -0.98143590        3
H        3.33478731      -4.34531354       0.03570542        3
O       -2.43600408       3.34274493       0.37113329        4
H       -2.79588863       4.21840103       0.51234711        4
H       -1.59036300       3.35566541       0.81941452        4
27
Properties=species:S:1:pos:R:3:fragment_id:I:1 config_id=train__dev_aza_aryl_ether__cluster_4water__compact molecule_id=dev_aza_aryl_ether smiles=COc1ncccc1F split=train chemical_role="aza aryl ether fluoride" category=cluster_4water motif=compact regime=equilibrium conformer_index=0 n_solute_atoms=15 n_waters=4 nextgen_pool_status=ORIGINAL_DEVELOPMENT pbc="F F F"
C        2.59214423      -0.24633354       0.53336361        0
O        1.73734879       0.70048954      -0.09716949        0
C        0.40998013       0.31713553      -0.10267989        0
N        0.04946168      -0.86248429       0.46072709        0
C       -1.26582245      -1.17510827       0.41994837        0
C       -2.23785548      -0.36817124      -0.15538158        0
C       -1.84132466       0.83721461      -0.72670955        0
C       -0.49727156       1.18446038      -0.69963255        0
F       -0.10305136       2.34311749      -1.24677607        0
H        3.61334740       0.14437649       0.48729584        0
H        2.33294473      -0.37401326       1.59014204        0
H        2.57989658      -1.20630589       0.00556656        0
H       -1.52890315      -2.12510942       0.87793259        0
H       -3.27893738      -0.67244288      -0.15781449        0
H       -2.56195751       1.50317475      -1.18881246        0
O        6.28099700      -0.19628456       1.91831727        1
H        5.80279584       0.20309028       1.19164319        1
H        6.13571448       0.39640103       2.65577819        1
O       -4.90818548      -0.44120144      -1.48028418        2
H       -5.08743167      -0.54095853      -2.41524469        2
H       -5.77320431      -0.37508593      -1.07580549        2
O       -3.65398155      -3.57310832       0.92165634        3
H       -3.66969159      -3.25112581       0.02037265        3
H       -3.95310700      -4.48011864       0.85771816        3
O       -2.97111716       3.34315209      -0.41825874        4
H       -2.59787280       4.03739200      -0.96135306        4
H       -3.77452472       3.72268208      -0.06227402        4
27
Properties=species:S:1:pos:R:3:fragment_id:I:1 config_id=train__dev_aza_aryl_ether__cluster_4water__cooperative molecule_id=dev_aza_aryl_ether smiles=COc1ncccc1F split=train chemical_role="aza aryl ether fluoride" category=cluster_4water motif=cooperative regime=cooperative conformer_index=0 n_solute_atoms=15 n_waters=4 nextgen_pool_status=ORIGINAL_DEVELOPMENT pbc="F F F"
C        2.59214423      -0.24633354       0.53336361        0
O        1.73734879       0.70048954      -0.09716949        0
C        0.40998013       0.31713553      -0.10267989        0
N        0.04946168      -0.86248429       0.46072709        0
C       -1.26582245      -1.17510827       0.41994837        0
C       -2.23785548      -0.36817124      -0.15538158        0
C       -1.84132466       0.83721461      -0.72670955        0
C       -0.49727156       1.18446038      -0.69963255        0
F       -0.10305136       2.34311749      -1.24677607        0
H        3.61334740       0.14437649       0.48729584        0
H        2.33294473      -0.37401326       1.59014204        0
H        2.57989658      -1.20630589       0.00556656        0
H       -1.52890315      -2.12510942       0.87793259        0
H       -3.27893738      -0.67244288      -0.15781449        0
H       -2.56195751       1.50317475      -1.18881246        0
O       -0.68617170       4.18012468      -2.70869389        1
H        0.02987769       4.14043346      -2.07471462        1
H       -1.11976383       3.32998923      -2.63453577        1
O       -1.13213885       6.44771739      -4.39538098        2
H       -0.44088256       6.32895284      -3.74400431        2
H       -1.64074783       5.63778192      -4.35596942        2
O       -1.58660165       8.75530804      -5.85986976        3
H       -0.86004735       8.57318704      -5.26389776        3
H       -2.12095105       7.96148503      -5.83646890        3
O       -1.95971120      11.25012895      -7.30220309        4
H       -1.23459091      11.00957764      -6.72551646        4
H       -2.53437492      10.48464277      -7.29726824        4
27
Properties=species:S:1:pos:R:3:fragment_id:I:1 config_id=train__dev_aza_aryl_ether__cluster_4water__orientation molecule_id=dev_aza_aryl_ether smiles=COc1ncccc1F split=train chemical_role="aza aryl ether fluoride" category=cluster_4water motif=orientation regime=orientation conformer_index=0 n_solute_atoms=15 n_waters=4 nextgen_pool_status=ORIGINAL_DEVELOPMENT pbc="F F F"
C        2.59214423      -0.24633354       0.53336361        0
O        1.73734879       0.70048954      -0.09716949        0
C        0.40998013       0.31713553      -0.10267989        0
N        0.04946168      -0.86248429       0.46072709        0
C       -1.26582245      -1.17510827       0.41994837        0
C       -2.23785548      -0.36817124      -0.15538158        0
C       -1.84132466       0.83721461      -0.72670955        0
C       -0.49727156       1.18446038      -0.69963255        0
F       -0.10305136       2.34311749      -1.24677607        0
H        3.61334740       0.14437649       0.48729584        0
H        2.33294473      -0.37401326       1.59014204        0
H        2.57989658      -1.20630589       0.00556656        0
H       -1.52890315      -2.12510942       0.87793259        0
H       -3.27893738      -0.67244288      -0.15781449        0
H       -2.56195751       1.50317475      -1.18881246        0
O       -3.62905563      -2.67144262      -0.21400473        1
H       -3.63646361      -1.72293438      -0.08551702        1
H       -4.04899114      -2.80173252      -1.06424619        1
O        6.27162199      -0.18298854       0.89188307        2
H        6.52823080      -0.53969968       0.04150615        2
H        6.79253304      -0.67580461       1.52593026        2
O       -4.21777570       4.39972917      -1.91288978        3
H       -4.92372882       4.87126092      -2.35506604        3
H       -3.55578600       4.26732286      -2.59146921        3
O       -0.18223771       5.14399381      -2.36516343        4
H       -0.89281679       4.52296891      -2.52527984        4
H        0.46097614       4.64747815      -1.85921878        4
22
Properties=species:S:1:pos:R:3:fragment_id:I:1 config_id=train__dev_cyano_ether__cluster_4water__compact molecule_id=dev_cyano_ether smiles=COCC#N split=train chemical_role="ether nitrile" category=cluster_4water motif=compact regime=equilibrium conformer_index=0 n_solute_atoms=10 n_waters=4 nextgen_pool_status=ORIGINAL_DEVELOPMENT pbc="F F F"
C        1.39440452      -0.13917142      -0.05080464        0
O        0.25153848      -0.58043341      -0.77456353        0
C       -0.96855157      -0.41478807      -0.03785258        0
C       -1.42535856       0.98479894       0.00239506        0
N       -1.78662997       2.08728787       0.06006740        0
H        1.49470598      -0.69729912       0.88504338        0
H        2.28010244      -0.32790339      -0.66359850        0
H        1.33849076       0.93399617       0.15319623        0
H       -0.85295447      -0.82501094       0.97172148        0
H       -1.72574761      -1.02147663      -0.54560430        0
O       -4.33046859       0.52424742      -0.93047617        1
H       -3.93779430      -0.02091309      -1.61226702        1
H       -5.26313767       0.54216956      -1.14504322        1
O        4.37463593      -0.38994687      -1.12997032        2
H        4.33008306       0.56473820      -1.07683550        2
H        5.26468349      -0.60457233      -0.85071578        2
O       -4.30925467      -0.96819592       0.77714039        3
H       -3.83268165      -0.15645995       0.60337415        3
H       -4.89447090      -0.75219077       1.50315387        3
O       -3.56304578       4.61260969      -0.31530548        4
H       -3.51479725       3.66030449      -0.39908324        4
H       -3.77125576       4.92087081      -1.19726667        4
22
Properties=species:S:1:pos:R:3:fragment_id:I:1 config_id=train__dev_cyano_ether__cluster_4water__cooperative molecule_id=dev_cyano_ether smiles=COCC#N split=train chemical_role="ether nitrile" category=cluster_4water motif=cooperative regime=cooperative conformer_index=0 n_solute_atoms=10 n_waters=4 nextgen_pool_status=ORIGINAL_DEVELOPMENT pbc="F F F"
C        1.39440452      -0.13917142      -0.05080464        0
O        0.25153848      -0.58043341      -0.77456353        0
C       -0.96855157      -0.41478807      -0.03785258        0
C       -1.42535856       0.98479894       0.00239506        0
N       -1.78662997       2.08728787       0.06006740        0
H        1.49470598      -0.69729912       0.88504338        0
H        2.28010244      -0.32790339      -0.66359850        0
H        1.33849076       0.93399617       0.15319623        0
H       -0.85295447      -0.82501094       0.97172148        0
H       -1.72574761      -1.02147663      -0.54560430        0
O        1.33290050      -2.23481036      -2.63642474        1
H        0.63837887      -1.58785861      -2.76021882        1
H        1.56076894      -2.16782888      -1.70915925        1
O        2.40246686      -3.92825183      -4.48753545        2
H        1.70270142      -3.28763564      -4.61470098        2
H        2.64270591      -3.84130115      -3.56506236        2
O        3.54628599      -5.47512815      -6.46604059        3
H        2.87915198      -4.79596251      -6.56552974        3
H        3.72774610      -5.49747889      -5.52646382        3
O        4.71096055      -7.21024506      -8.24597047        4
H        3.98391867      -6.60827682      -8.40495529        4
H        4.94084244      -7.07155085      -7.32719407        4
22
Properties=species:S:1:pos:R:3:fragment_id:I:1 config_id=train__dev_cyano_ether__cluster_4water__orientation molecule_id=dev_cyano_ether smiles=COCC#N split=train chemical_role="ether nitrile" category=cluster_4water motif=orientation regime=orientation conformer_index=0 n_solute_atoms=10 n_waters=4 nextgen_pool_status=ORIGINAL_DEVELOPMENT pbc="F F F"
C        1.39440452      -0.13917142      -0.05080464        0
O        0.25153848      -0.58043341      -0.77456353        0
C       -0.96855157      -0.41478807      -0.03785258        0
C       -1.42535856       0.98479894       0.00239506        0
N       -1.78662997       2.08728787       0.06006740        0
H        1.49470598      -0.69729912       0.88504338        0
H        2.28010244      -0.32790339      -0.66359850        0
H        1.33849076       0.93399617       0.15319623        0
H       -0.85295447      -0.82501094       0.97172148        0
H       -1.72574761      -1.02147663      -0.54560430        0
O        5.12401781      -0.40928622      -1.02127748        1
H        6.01596072      -0.72601569      -0.87861658        1
H        5.22874504       0.52098464      -1.22092762        1
O        1.74910645      -1.41113837      -3.63828684        2
H        1.52851098      -1.82696238      -4.47174942        2
H        2.14989296      -2.10929686      -3.12042901        2
O        0.68853522      -2.76684250      -1.62030803        3
H        1.23807501      -2.12917117      -2.07595388        3
H       -0.08438299      -2.26969362      -1.35259126        3
O       -3.16923061       3.48051411       0.35000761        4
H       -3.75236435       3.15976220       1.03797934        4
H       -2.72923809       2.69577129       0.02317872        4
29
Properties=species:S:1:pos:R:3:fragment_id:I:1 config_id=train__dev_cyclic_carbamate__cluster_4water__compact molecule_id=dev_cyclic_carbamate smiles=O=C1N(C)CCOC1 split=train chemical_role="cyclic carbamate" category=cluster_4water motif=compact regime=equilibrium conformer_index=0 n_solute_atoms=17 n_waters=4 nextgen_pool_status=ORIGINAL_DEVELOPMENT pbc="F F F"
O       -0.57471414       2.40023610       0.19585107        0
C       -0.04507130       1.30294096       0.02287873        0
N       -0.73175591       0.09916206       0.13913133        0
C       -2.15969347       0.09408374       0.39135598        0
C       -0.10344363      -1.15532992      -0.25924123        0
C        1.40594472      -1.13799148      -0.04539797        0
O        1.96788604      -0.04492637      -0.77051659        0
C        1.46553110       1.18739759      -0.26976822        0
H       -2.67738095      -0.16687586      -0.53629823        0
H       -2.38288731      -0.65268908       1.15858520        0
H       -2.51343206       1.07042029       0.73243729        0
H       -0.33216022      -1.29598800      -1.32184946        0
H       -0.55057164      -1.97529734       0.31223619        0
H        1.66404610      -1.04622209       1.01640490        0
H        1.85174090      -2.06253895      -0.42474706        0
H        1.99606398       1.42244096       0.66050978        0
H        1.71989778       1.96117740      -1.00157173        0
O       -5.37690387       0.46427623       0.71651005        1
H       -4.82752584       0.45327987      -0.06725949        1
H       -5.36126966      -0.43887120       1.03323093        1
O        3.79126974       3.80181902      -1.22621898        2
H        3.68777577       3.08742187      -1.85483457        2
H        2.90103868       4.11953038      -1.07528857        2
O       -1.67291492       4.66894753      -0.78375066        3
H       -1.97492033       4.60170560       0.12206560        3
H       -0.79214799       5.03764208      -0.71632821        3
O        4.26649345       0.06196350      -1.78655764        4
H        3.94463446       0.55528612      -1.03205686        4
H        5.21409180       0.01862712      -1.65845160        4
29
Properties=species:S:1:pos:R:3:fragment_id:I:1 config_id=train__dev_cyclic_carbamate__cluster_4water__cooperative molecule_id=dev_cyclic_carbamate smiles=O=C1N(C)CCOC1 split=train chemical_role="cyclic carbamate" category=cluster_4water motif=cooperative regime=cooperative conformer_index=0 n_solute_atoms=17 n_waters=4 nextgen_pool_status=ORIGINAL_DEVELOPMENT pbc="F F F"
O       -0.57471414       2.40023610       0.19585107        0
C       -0.04507130       1.30294096       0.02287873        0
N       -0.73175591       0.09916206       0.13913133        0
C       -2.15969347       0.09408374       0.39135598        0
C       -0.10344363      -1.15532992      -0.25924123        0
C        1.40594472      -1.13799148      -0.04539797        0
O        1.96788604      -0.04492637      -0.77051659        0
C        1.46553110       1.18739759      -0.26976822        0
H       -2.67738095      -0.16687586      -0.53629823        0
H       -2.38288731      -0.65268908       1.15858520        0
H       -2.51343206       1.07042029       0.73243729        0
H       -0.33216022      -1.29598800      -1.32184946        0
H       -0.55057164      -1.97529734       0.31223619        0
H        1.66404610      -1.04622209       1.01640490        0
H        1.85174090      -2.06253895      -0.42474706        0
H        1.99606398       1.42244096       0.66050978        0
H        1.71989778       1.96117740      -1.00157173        0
O       -4.95631520       1.07154047      -0.40144574        1
H       -4.22126544       1.67901770      -0.31834874        1
H       -4.55823498       0.20324760      -0.33954677        1
O       -7.80256459       1.74741690      -0.32832226        2
H       -7.05788211       2.34857891      -0.34517710        2
H       -7.40754079       0.87561782      -0.34074782        2
O      -10.43414918       2.13513714      -0.38910763        3
H       -9.74437124       2.79863059      -0.37445580        3
H       -9.96497958       1.30089205      -0.37698964        3
O      -13.20336999       2.62712167      -0.57991960        4
H      -12.49573963       3.27019272      -0.53575250        4
H      -12.75994769       1.77955262      -0.54477391        4
29
Properties=species:S:1:pos:R:3:fragment_id:I:1 config_id=train__dev_cyclic_carbamate__cluster_4water__orientation molecule_id=dev_cyclic_carbamate smiles=O=C1N(C)CCOC1 split=train chemical_role="cyclic carbamate" category=cluster_4water motif=orientation regime=orientation conformer_index=0 n_solute_atoms=17 n_waters=4 nextgen_pool_status=ORIGINAL_DEVELOPMENT pbc="F F F"
O       -0.57471414       2.40023610       0.19585107        0
C       -0.04507130       1.30294096       0.02287873        0
N       -0.73175591       0.09916206       0.13913133        0
C       -2.15969347       0.09408374       0.39135598        0
C       -0.10344363      -1.15532992      -0.25924123        0
C        1.40594472      -1.13799148      -0.04539797        0
O        1.96788604      -0.04492637      -0.77051659        0
C        1.46553110       1.18739759      -0.26976822        0
H       -2.67738095      -0.16687586      -0.53629823        0
H       -2.38288731      -0.65268908       1.15858520        0
H       -2.51343206       1.07042029       0.73243729        0
H       -0.33216022      -1.29598800      -1.32184946        0
H       -0.55057164      -1.97529734       0.31223619        0
H        1.66404610      -1.04622209       1.01640490        0
H        1.85174090      -2.06253895      -0.42474706        0
H        1.99606398       1.42244096       0.66050978        0
H        1.71989778       1.96117740      -1.00157173        0
O        4.39812041      -0.12173923      -2.02203512        1
H        4.02445801      -0.82996642      -2.54646099        1
H        4.95842197      -0.56481015      -1.38486784        1
O       -0.65538701       4.60111856       0.64426025        2
H       -0.10906455       4.01067542       0.12547271        2
H       -0.10687860       4.84163905       1.39093304        2
O       -3.60935854       2.72014675      -0.78974110        3
H       -4.40394290       2.77357055      -1.32079047        3
H       -3.89687521       2.94355658       0.09550127        3
O       -4.90844860      -0.01014079       0.00046661        4
H       -4.03717771      -0.38151095      -0.13810862        4
H       -4.74493210       0.83855000       0.41182792        4
25
Properties=species:S:1:pos:R:3:fragment_id:I:1 config_id=train__dev_hydroxy_nitrile__cluster_4water__compact molecule_id=dev_hydroxy_nitrile smiles=N#CCC(O)C split=train chemical_role="alcohol nitrile" category=cluster_4water motif=compact regime=equilibrium conformer_index=0 n_solute_atoms=13 n_waters=4 nextgen_pool_status=ORIGINAL_DEVELOPMENT pbc="F F F"
N        3.28035635      -0.66169080       0.35314983        0
C        2.15831027      -0.73385542       0.06447429        0
C        0.73243394      -0.86196935      -0.26978201        0
C       -0.04632014       0.37893890       0.17338856        0
O        0.19623331       1.43984200      -0.75090623        0
C       -1.54558892       0.10702480       0.19511285        0
H        0.62677969      -1.01361408      -1.35035003        0
H        0.33971610      -1.75328585       0.23333398        0
H        0.27967031       0.71139361       1.16624298        0
H       -0.22457950       2.24463236      -0.39931858        0
H       -1.90667054      -0.17739728      -0.79946917        0
H       -2.09475082       1.01022290       0.48249281        0
H       -1.79559003      -0.69024181       0.90163072        0
O        1.22050228       4.16805327      -1.79059102        1
H        1.13193756       3.78196385      -0.91919955        1
H        0.63317043       3.65180306      -2.34264071        1
O        1.85911455      -3.77809794      -1.85980770        2
H        2.75464996      -3.94609542      -2.15310791        2
H        1.94434877      -3.58713766      -0.92573001        2
O        5.86503186      -0.58859950      -0.01329887        3
H        5.17950556      -0.88789445      -0.61054930        3
H        5.39025449      -0.22733440       0.73523690        3
O       -1.15318006       4.15194576       2.27465556        4
H       -0.78620903       3.73032605       3.05170183        4
H       -0.94291692       3.55552323       1.55611439        4
25
Properties=species:S:1:pos:R:3:fragment_id:I:1 config_id=train__dev_hydroxy_nitrile__cluster_4water__cooperative molecule_id=dev_hydroxy_nitrile smiles=N#CCC(O)C split=train chemical_role="alcohol nitrile" category=cluster_4water motif=cooperative regime=cooperative conformer_index=0 n_solute_atoms=13 n_waters=4 nextgen_pool_status=ORIGINAL_DEVELOPMENT pbc="F F F"
N        3.28035635      -0.66169080       0.35314983        0
C        2.15831027      -0.73385542       0.06447429        0
C        0.73243394      -0.86196935      -0.26978201        0
C       -0.04632014       0.37893890       0.17338856        0
O        0.19623331       1.43984200      -0.75090623        0
C       -1.54558892       0.10702480       0.19511285        0
H        0.62677969      -1.01361408      -1.35035003        0
H        0.33971610      -1.75328585       0.23333398        0
H        0.27967031       0.71139361       1.16624298        0
H       -0.22457950       2.24463236      -0.39931858        0
H       -1.90667054      -0.17739728      -0.79946917        0
H       -2.09475082       1.01022290       0.48249281        0
H       -1.79559003      -0.69024181       0.90163072        0
O        5.39458186      -2.39865376       0.11040252        1
H        4.52740064      -2.80263742       0.14243021        1
H        5.21986644      -1.45869907       0.06358853        1
O        7.86054773      -3.95134124      -0.16588427        2
H        6.96545177      -4.23545125      -0.35113161        2
H        7.76849261      -3.04567474       0.12996346        2
O       10.30969578      -5.14395575      -0.44578941        3
H        9.45604539      -5.49092295      -0.70487747        3
H       10.11536459      -4.28667313      -0.06693095        3
O       12.89594836      -6.31846256      -0.56469024        4
H       12.05024528      -6.75035772      -0.68504265        4
H       12.67568472      -5.40247502      -0.39533089        4
25
Properties=species:S:1:pos:R:3:fragment_id:I:1 config_id=train__dev_hydroxy_nitrile__cluster_4water__orientation molecule_id=dev_hydroxy_nitrile smiles=N#CCC(O)C split=train chemical_role="alcohol nitrile" category=cluster_4water motif=orientation regime=orientation conformer_index=0 n_solute_atoms=13 n_waters=4 nextgen_pool_status=ORIGINAL_DEVELOPMENT pbc="F F F"
N        3.28035635      -0.66169080       0.35314983        0
C        2.15831027      -0.73385542       0.06447429        0
C        0.73243394      -0.86196935      -0.26978201        0
C       -0.04632014       0.37893890       0.17338856        0
O        0.19623331       1.43984200      -0.75090623        0
C       -1.54558892       0.10702480       0.19511285        0
H        0.62677969      -1.01361408      -1.35035003        0
H        0.33971610      -1.75328585       0.23333398        0
H        0.27967031       0.71139361       1.16624298        0
H       -0.22457950       2.24463236      -0.39931858        0
H       -1.90667054      -0.17739728      -0.79946917        0
H       -2.09475082       1.01022290       0.48249281        0
H       -1.79559003      -0.69024181       0.90163072        0
O        5.60474539      -1.32266420       0.70398293        1
H        6.09494438      -2.14429992       0.67480179        1
H        4.97883690      -1.39089991      -0.01699854        1
O       -0.15941190      -0.15043427       3.31461948        2
H       -0.35349219       0.59940246       3.87703352        2
H        0.79203270      -0.13300819       3.21126887        2
O       -4.98276475       1.76961388      -0.09917044        3
H       -5.30571953       1.50625168       0.76255597        3
H       -5.20008993       1.03415181      -0.67196809        3
O        2.69972149      -2.26897353      -0.83842528        4
H        1.85550370      -2.21993049      -0.38995797        4
H        3.33869618      -2.38460083      -0.13516607        4
26
Properties=species:S:1:pos:R:3:fragment_id:I:1 config_id=train__dev_oxazolidinone__cluster_4water__compact molecule_id=dev_oxazolidinone smiles=O=C1OCCN1C split=train chemical_role="cyclic urea ether" category=cluster_4water motif=compact regime=equilibrium conformer_index=0 n_solute_atoms=14 n_waters=4 nextgen_pool_status=ORIGINAL_DEVELOPMENT pbc="F F F"
O        0.50638663       2.44082653       0.27923604        0
C       -0.08288586       1.37443485       0.23426948        0
O       -1.43058537       1.24031979       0.43278175        0
C       -1.74229499      -0.15814841       0.47378631        0
C       -0.55465052      -0.84714553      -0.15268141        0
N        0.46215943       0.14645844      -0.03481290        0
C        1.83856886      -0.09444791      -0.38724547        0
H       -2.66989912      -0.35265816      -0.07213634        0
H       -1.87995160      -0.44714175       1.52116194        0
H       -0.72070202      -1.05016501      -1.21566085        0
H       -0.27889779      -1.77122217       0.36228529        0
H        2.44605030       0.79416354      -0.19674121        0
H        1.89086584      -0.34400698      -1.45059797        0
H        2.21583621      -0.93126723       0.20635533        0
O        1.31961002       4.77992023       1.11697310        1
H        1.02097857       5.12384711       1.95885516        1
H        2.19969050       4.44685793       1.29235756        1
O       -4.33581855       0.42094657       1.90764700        2
H       -3.82346862       1.00831511       1.35201440        2
H       -3.82831803       0.35214444       2.71631339        2
O        5.33024015       0.29294586      -1.88162912        3
H        5.18261180       0.02021544      -2.78719846        3
H        4.45173282       0.40836883      -1.51950447        3
O       -3.57698153       2.56947526       0.26218399        4
H       -3.49560548       2.44879302       1.20825248        4
H       -2.82120534       3.10587461       0.02278910        4
26
Properties=species:S:1:pos:R:3:fragment_id:I:1 config_id=train__dev_oxazolidinone__cluster_4water__cooperative molecule_id=dev_oxazolidinone smiles=O=C1OCCN1C split=train chemical_role="cyclic urea ether" category=cluster_4water motif=cooperative regime=cooperative conformer_index=0 n_solute_atoms=14 n_waters=4 nextgen_pool_status=ORIGINAL_DEVELOPMENT pbc="F F F"
O        0.50638663       2.44082653       0.27923604        0
C       -0.08288586       1.37443485       0.23426948        0
O       -1.43058537       1.24031979       0.43278175        0
C       -1.74229499      -0.15814841       0.47378631        0
C       -0.55465052      -0.84714553      -0.15268141        0
N        0.46215943       0.14645844      -0.03481290        0
C        1.83856886      -0.09444791      -0.38724547        0
H       -2.66989912      -0.35265816      -0.07213634        0
H       -1.87995160      -0.44714175       1.52116194        0
H       -0.72070202      -1.05016501      -1.21566085        0
H       -0.27889779      -1.77122217       0.36228529        0
H        2.44605030       0.79416354      -0.19674121        0
H        1.89086584      -0.34400698      -1.45059797        0
H        2.21583621      -0.93126723       0.20635533        0
O       -4.92797649      -1.00463490       0.43029599        1
H       -4.55616357      -0.12262260       0.43672135        1
H       -4.16742053      -1.58575869       0.43932951        1
O       -7.81259210      -1.31007609       0.29014988        2
H       -7.31025790      -0.49570634       0.31649573        2
H       -7.15103348      -2.00120557       0.32035057        2
O      -10.47507895      -1.59579825       0.56344739        3
H       -9.97590216      -0.78094439       0.50806180        3
H       -9.81520169      -2.28626936       0.49985903        3
O      -13.31377249      -2.03512515       0.81996046        4
H      -12.85238933      -1.19777590       0.77301734        4
H      -12.62176659      -2.69397157       0.76267980        4
26
Properties=species:S:1:pos:R:3:fragment_id:I:1 config_id=train__dev_oxazolidinone__cluster_4water__orientation molecule_id=dev_oxazolidinone smiles=O=C1OCCN1C split=train chemical_role="cyclic urea ether" category=cluster_4water motif=orientation regime=orientation conformer_index=0 n_solute_atoms=14 n_waters=4 nextgen_pool_status=ORIGINAL_DEVELOPMENT pbc="F F F"
O        0.50638663       2.44082653       0.27923604        0
C       -0.08288586       1.37443485       0.23426948        0
O       -1.43058537       1.24031979       0.43278175        0
C       -1.74229499      -0.15814841       0.47378631        0
C       -0.55465052      -0.84714553      -0.15268141        0
N        0.46215943       0.14645844      -0.03481290        0
C        1.83856886      -0.09444791      -0.38724547        0
H       -2.66989912      -0.35265816      -0.07213634        0
H       -1.87995160      -0.44714175       1.52116194        0
H       -0.72070202      -1.05016501      -1.21566085        0
H       -0.27889779      -1.77122217       0.36228529        0
H        2.44605030       0.79416354      -0.19674121        0
H        1.89086584      -0.34400698      -1.45059797        0
H        2.21583621      -0.93126723       0.20635533        0
O        1.11593080       4.99341086       1.05190888        1
H        0.96185619       4.09140660       0.77105095        1
H        1.54457562       4.90965445       1.90366020        1
O       -2.21786902      -2.54694010      -2.08797138        2
H       -1.40890072      -2.98444665      -2.35328279        2
H       -2.57995788      -3.10752396      -1.40177226        2
O       -1.57999285      -3.22473537       1.05396829        3
H       -1.13230910      -2.55242045       0.54034999        3
H       -0.99430288      -3.39238478       1.79227227        3
O       -5.31483426      -1.44380922       1.44447040        4
H       -5.90265480      -1.34347705       2.19322424        4
H       -5.79354511      -1.05903268       0.71029415        4
28
Properties=species:S:1:pos:R:3:fragment_id:I:1 config_id=train__dev_sulfonyl_amine__cluster_4water__compact molecule_id=dev_sulfonyl_amine smiles=CS(=O)(=O)N(C)C split=train chemical_role=sulfonamide category=cluster_4water motif=compact regime=equilibrium conformer_index=0 n_solute_atoms=16 n_waters=4 nextgen_pool_status=ORIGINAL_DEVELOPMENT pbc="F F F"
C        1.83978143       0.09966068      -0.46221228        0
S        0.65317042       1.16079694       0.34017911        0
O        1.06226299       1.31254295       1.72000783        0
O        0.44743642       2.31249524      -0.51162806        0
N       -0.75720751       0.22422181       0.30908422        0
C       -1.40865520       0.02234836      -0.99526520        0
C       -0.80727966      -0.95572635       1.18753706        0
H        1.50982827      -0.10617647      -1.48141519        0
H        1.94913834      -0.82067113       0.11315114        0
H        2.79468357       0.62998974      -0.48766162        0
H       -0.86921212      -0.72038359      -1.58956927        0
H       -2.43446094      -0.33035689      -0.84625723        0
H       -1.47431259       0.95924531      -1.55485437        0
H       -1.84363083      -1.29127818       1.29827264        0
H       -0.44242102      -0.71901369       2.19056814        0
H       -0.21912157      -1.77769474       0.77006307        0
O        2.71287776       2.93334491       3.67973119        1
H        1.81973519       2.83097886       3.35102251        1
H        3.07315192       2.04654214       3.67583125        1
O       -3.13837318      -3.29916169       3.53227161        2
H       -2.65298678      -3.28674310       2.70736091        2
H       -2.88915247      -4.12609913       3.94494016        2
O        5.50610669       0.09443608      -2.76831656        3
H        4.93717253      -0.45499792      -3.30745295        3
H        5.07874647       0.11484897      -1.91205819        3
O        1.90354614       2.89474954       0.86088769        4
H        2.38473442       3.70315222       1.03745153        4
H        2.55116036       2.31157678       0.46498720        4
28
Properties=species:S:1:pos:R:3:fragment_id:I:1 config_id=train__dev_sulfonyl_amine__cluster_4water__cooperative molecule_id=dev_sulfonyl_amine smiles=CS(=O)(=O)N(C)C split=train chemical_role=sulfonamide category=cluster_4water motif=cooperative regime=cooperative conformer_index=0 n_solute_atoms=16 n_waters=4 nextgen_pool_status=ORIGINAL_DEVELOPMENT pbc="F F F"
C        1.83978143       0.09966068      -0.46221228        0
S        0.65317042       1.16079694       0.34017911        0
O        1.06226299       1.31254295       1.72000783        0
O        0.44743642       2.31249524      -0.51162806        0
N       -0.75720751       0.22422181       0.30908422        0
C       -1.40865520       0.02234836      -0.99526520        0
C       -0.80727966      -0.95572635       1.18753706        0
H        1.50982827      -0.10617647      -1.48141519        0
H        1.94913834      -0.82067113       0.11315114        0
H        2.79468357       0.62998974      -0.48766162        0
H       -0.86921212      -0.72038359      -1.58956927        0
H       -2.43446094      -0.33035689      -0.84625723        0
H       -1.47431259       0.95924531      -1.55485437        0
H       -1.84363083      -1.29127818       1.29827264        0
H       -0.44242102      -0.71901369       2.19056814        0
H       -0.21912157      -1.77769474       0.77006307        0
O       -3.76073330      -1.15043883      -3.01898035        1
H       -3.61292351      -0.24170895      -2.75707556        1
H       -3.07767116      -1.64488146      -2.56600746        1
O       -6.04224630      -1.74188929      -4.43090035        2
H       -5.71867700      -0.87798002      -4.17556624        2
H       -5.39277908      -2.35355241      -4.08406840        2
O       -8.34315872      -2.23548576      -5.85938609        3
H       -7.98919050      -1.38674182      -5.59373209        3
H       -7.71774637      -2.87413098      -5.51700688        3
O      -10.54083891      -2.91161033      -7.30913309        4
H      -10.25543532      -2.03482478      -7.05218227        4
H       -9.87887044      -3.49693332      -6.94112956        4
28
Properties=species:S:1:pos:R:3:fragment_id:I:1 config_id=train__dev_sulfonyl_amine__cluster_4water__orientation molecule_id=dev_sulfonyl_amine smiles=CS(=O)(=O)N(C)C split=train chemical_role=sulfonamide category=cluster_4water motif=orientation regime=orientation conformer_index=0 n_solute_atoms=16 n_waters=4 nextgen_pool_status=ORIGINAL_DEVELOPMENT pbc="F F F"
C        1.83978143       0.09966068      -0.46221228        0
S        0.65317042       1.16079694       0.34017911        0
O        1.06226299       1.31254295       1.72000783        0
O        0.44743642       2.31249524      -0.51162806        0
N       -0.75720751       0.22422181       0.30908422        0
C       -1.40865520       0.02234836      -0.99526520        0
C       -0.80727966      -0.95572635       1.18753706        0
H        1.50982827      -0.10617647      -1.48141519        0
H        1.94913834      -0.82067113       0.11315114        0
H        2.79468357       0.62998974      -0.48766162        0
H       -0.86921212      -0.72038359      -1.58956927        0
H       -2.43446094      -0.33035689      -0.84625723        0
H       -1.47431259       0.95924531      -1.55485437        0
H       -1.84363083      -1.29127818       1.29827264        0
H       -0.44242102      -0.71901369       2.19056814        0
H       -0.21912157      -1.77769474       0.77006307        0
O       -4.66801542      -1.92084516      -1.40625757        1
H       -4.83522266      -2.82887941      -1.15377511        1
H       -3.81787879      -1.71614757      -1.01690112        1
O       -3.36968748      -2.48826145       2.92574863        2
H       -3.55449043      -2.89296151       3.77327301        2
H       -2.98637326      -1.63873606       3.14394273        2
O        2.41837513       3.12843537       3.87913479        3
H        2.23932208       2.29314279       4.31094281        3
H        3.25105976       2.99141132       3.42736875        3
O        1.94322485       4.04803976       1.80078901        4
H        1.18226982       4.33942318       1.29851918        4
H        2.59286583       4.73972020       1.67518400        4
28
Properties=species:S:1:pos:R:3:fragment_id:I:1 config_id=train__dev_thio_amide__cluster_4water__compact molecule_id=dev_thio_amide smiles=CSC(=O)N(C)C split=train chemical_role="thioether amide" category=cluster_4water motif=compact regime=equilibrium conformer_index=0 n_solute_atoms=16 n_waters=4 nextgen_pool_status=ORIGINAL_DEVELOPMENT pbc="F F F"
C        3.07242893      -0.04607722       0.21207785        0
S        1.55244152       0.92717312       0.22612008        0
C        0.37063560      -0.37246634       0.10514042        0
O        0.74324158      -1.53731943       0.01777185        0
N       -0.96733131       0.00854592       0.09242498        0
C       -1.97112191      -1.01084769      -0.15949407        0
C       -1.46385474       1.37423759       0.20520316        0
H        3.16038886      -0.61215783      -0.71933747        0
H        3.09920164      -0.73326379       1.06224638        0
H        3.93031634       0.62761666       0.28725278        0
H       -1.53851476      -2.00882037      -0.26546965        0
H       -2.50156817      -0.75899093      -1.08287429        0
H       -2.67883203      -1.02250788       0.67486374        0
H       -0.81565618       2.00014868       0.82114335        0
H       -2.45661706       1.36526007       0.66592107        0
H       -1.53515830       1.79946944      -0.80015130        0
O        1.62858137      -3.23301658      -0.08106269        1
H        1.87791294      -2.90275278       0.78206618        1
H        0.70924921      -3.48217620       0.01369857        1
O       -4.31091219      -3.10995762      -0.91891121        2
H       -3.61335999      -2.81993312      -0.33108593        2
H       -4.58597555      -2.31493655      -1.37554399        2
O       -4.65896572       3.49204050       0.84961238        3
H       -4.20745690       2.75068373       1.25304982        3
H       -3.98501065       4.16651878       0.76537782        3
O        2.02681425      -2.28337289      -2.76663997        4
H        1.79227093      -2.70443647      -1.93964134        4
H        2.49805995      -2.95869228      -3.25459801        4
28
Properties=species:S:1:pos:R:3:fragment_id:I:1 config_id=train__dev_thio_amide__cluster_4water__cooperative molecule_id=dev_thio_amide smiles=CSC(=O)N(C)C split=train chemical_role="thioether amide" category=cluster_4water motif=cooperative regime=cooperative conformer_index=0 n_solute_atoms=16 n_waters=4 nextgen_pool_status=ORIGINAL_DEVELOPMENT pbc="F F F"
C        3.07242893      -0.04607722       0.21207785        0
S        1.55244152       0.92717312       0.22612008        0
C        0.37063560      -0.37246634       0.10514042        0
O        0.74324158      -1.53731943       0.01777185        0
N       -0.96733131       0.00854592       0.09242498        0
C       -1.97112191      -1.01084769      -0.15949407        0
C       -1.46385474       1.37423759       0.20520316        0
H        3.16038886      -0.61215783      -0.71933747        0
H        3.09920164      -0.73326379       1.06224638        0
H        3.93031634       0.62761666       0.28725278        0
H       -1.53851476      -2.00882037      -0.26546965        0
H       -2.50156817      -0.75899093      -1.08287429        0
H       -2.67883203      -1.02250788       0.67486374        0
H       -0.81565618       2.00014868       0.82114335        0
H       -2.45661706       1.36526007       0.66592107        0
H       -1.53515830       1.79946944      -0.80015130        0
O        6.61926937       0.35005060       0.61704230        1
H        6.12420161       0.30676532      -0.20104458        1
H        5.95723824       0.26410563       1.30301612        1
O        9.28409954       0.65090107       0.91355694        2
H        8.78984538       0.57931974       0.09696600        2
H        8.62103864       0.59182538       1.60137388        2
O       12.10520857       0.76265508       1.11075123        3
H       11.55109732       1.12903862       0.42158096        3
H       11.49131904       0.35000295       1.71827876        3
O       14.82242353       0.67267487       1.40995274        4
H       14.21547416       1.32374760       1.76201610        4
H       14.26527862       0.06015097       0.92970711        4
28
Properties=species:S:1:pos:R:3:fragment_id:I:1 config_id=train__dev_thio_amide__cluster_4water__orientation molecule_id=dev_thio_amide smiles=CSC(=O)N(C)C split=train chemical_role="thioether amide" category=cluster_4water motif=orientation regime=orientation conformer_index=0 n_solute_atoms=16 n_waters=4 nextgen_pool_status=ORIGINAL_DEVELOPMENT pbc="F F F"
C        3.07242893      -0.04607722       0.21207785        0
S        1.55244152       0.92717312       0.22612008        0
C        0.37063560      -0.37246634       0.10514042        0
O        0.74324158      -1.53731943       0.01777185        0
N       -0.96733131       0.00854592       0.09242498        0
C       -1.97112191      -1.01084769      -0.15949407        0
C       -1.46385474       1.37423759       0.20520316        0
H        3.16038886      -0.61215783      -0.71933747        0
H        3.09920164      -0.73326379       1.06224638        0
H        3.93031634       0.62761666       0.28725278        0
H       -1.53851476      -2.00882037      -0.26546965        0
H       -2.50156817      -0.75899093      -1.08287429        0
H       -2.67883203      -1.02250788       0.67486374        0
H       -0.81565618       2.00014868       0.82114335        0
H       -2.45661706       1.36526007       0.66592107        0
H       -1.53515830       1.79946944      -0.80015130        0
O       -4.42799551      -2.09848915       0.31659693        1
H       -5.03720966      -2.56724415       0.88699916        1
H       -3.56310574      -2.41473767       0.57771836        1
O        2.37864771      -3.72189861      -0.05238148        2
H        2.90150457      -3.27957602       0.61635109        2
H        1.55124334      -3.24084207      -0.06716150        2
O       -4.64108498       3.40926850       0.31664339        3
H       -5.24411914       2.91667080      -0.24006940        3
H       -4.57651536       4.26825698      -0.10073102        3
O       -5.60608541      -0.08814719       1.25195584        4
H       -6.29161110       0.08965607       0.60800524        4
H       -5.86715715      -0.91448672       1.65844862        4
19
Properties=species:S:1:pos:R:3:fragment_id:I:1 config_id=development__stress_acetamidine__cluster_3water__compressed molecule_id=stress_acetamidine smiles=CC(=N)N split=development chemical_role="amidine donor acceptor" category=cluster_3water motif=compressed regime=compressed conformer_index=0 n_solute_atoms=10 n_waters=3 nextgen_pool_status=ORIGINAL_DEVELOPMENT pbc="F F F"
C       -1.25304612      -0.29042184       0.00481029        0
C        0.12364562       0.31516125      -0.05679660        0
N        0.24625952       1.57418270      -0.29918618        0
N        1.19654725      -0.48706377       0.14567486        0
H       -1.33894047      -1.07441563      -0.75289939        0
H       -2.01900409       0.46857509      -0.17636534        0
H       -1.41179649      -0.73117477       0.99308295        0
H        1.23527122       1.82800961      -0.30781948        0
H        2.13982274      -0.12823087       0.11448995        0
H        1.08124082      -1.47462178       0.33500894        0
O        4.04586199      -1.58294985      -0.06024869        1
H        3.22915856      -2.02814724      -0.28613943        1
H        3.77138323      -0.71806860       0.24450316        1
O        6.77911203      -2.62251907      -0.30192913        2
H        5.96518259      -3.04507944      -0.57614336        2
H        6.50154092      -1.78481543       0.06879816        2
O        9.45190559      -3.61578134       0.02007806        3
H        8.64417427      -3.97899664       0.38322625        3
H        9.16820128      -2.84696726      -0.47456181        3
19
Properties=species:S:1:pos:R:3:fragment_id:I:1 config_id=development__stress_acetamidine__cluster_3water__cooperative molecule_id=stress_acetamidine smiles=CC(=N)N split=development chemical_role="amidine donor acceptor" category=cluster_3water motif=cooperative regime=cooperative conformer_index=0 n_solute_atoms=10 n_waters=3 nextgen_pool_status=ORIGINAL_DEVELOPMENT pbc="F F F"
C       -1.25304612      -0.29042184       0.00481029        0
C        0.12364562       0.31516125      -0.05679660        0
N        0.24625952       1.57418270      -0.29918618        0
N        1.19654725      -0.48706377       0.14567486        0
H       -1.33894047      -1.07441563      -0.75289939        0
H       -2.01900409       0.46857509      -0.17636534        0
H       -1.41179649      -0.73117477       0.99308295        0
H        1.23527122       1.82800961      -0.30781948        0
H        2.13982274      -0.12823087       0.11448995        0
H        1.08124082      -1.47462178       0.33500894        0
O        3.12565796       1.94264110       1.40411431        1
H        2.98379450       1.68487834       0.49325485        1
H        2.32043084       1.68695800       1.85407795        1
O        5.46872449       3.43916237       2.14141389        2
H        5.38529500       2.78599848       1.44668496        2
H        4.59762394       3.48266603       2.53577807        2
O        7.63506205       4.83977811       2.88511596        3
H        7.55720641       4.22414930       2.15630082        3
H        6.76741221       4.84410338       3.28933977        3
19
Properties=species:S:1:pos:R:3:fragment_id:I:1 config_id=development__stress_acetamidine__cluster_3water__equilibrium molecule_id=stress_acetamidine smiles=CC(=N)N split=development chemical_role="amidine donor acceptor" category=cluster_3water motif=equilibrium regime=equilibrium conformer_index=0 n_solute_atoms=10 n_waters=3 nextgen_pool_status=ORIGINAL_DEVELOPMENT pbc="F F F"
C       -1.25304612      -0.29042184       0.00481029        0
C        0.12364562       0.31516125      -0.05679660        0
N        0.24625952       1.57418270      -0.29918618        0
N        1.19654725      -0.48706377       0.14567486        0
H       -1.33894047      -1.07441563      -0.75289939        0
H       -2.01900409       0.46857509      -0.17636534        0
H       -1.41179649      -0.73117477       0.99308295        0
H        1.23527122       1.82800961      -0.30781948        0
H        2.13982274      -0.12823087       0.11448995        0
H        1.08124082      -1.47462178       0.33500894        0
O        2.08376043       2.04028651       1.34306062        1
H        2.86790070       2.56856863       1.19381621        1
H        2.09919850       1.84736860       2.28049125        1
O       -3.17466760      -1.11581788       0.26458126        2
H       -3.54431656      -0.28417462       0.56116342        2
H       -3.30356205      -1.71231359       1.00201663        2
O        0.65279132       5.07344771       0.05335440        3
H        0.26835349       4.20852041      -0.08926450        3
H       -0.02541946       5.56389998       0.51780951        3
19
Properties=species:S:1:pos:R:3:fragment_id:I:1 config_id=development__stress_acetamidine__cluster_3water__orientation molecule_id=stress_acetamidine smiles=CC(=N)N split=development chemical_role="amidine donor acceptor" category=cluster_3water motif=orientation regime=orientation conformer_index=0 n_solute_atoms=10 n_waters=3 nextgen_pool_status=ORIGINAL_DEVELOPMENT pbc="F F F"
C       -1.25304612      -0.29042184       0.00481029        0
C        0.12364562       0.31516125      -0.05679660        0
N        0.24625952       1.57418270      -0.29918618        0
N        1.19654725      -0.48706377       0.14567486        0
H       -1.33894047      -1.07441563      -0.75289939        0
H       -2.01900409       0.46857509      -0.17636534        0
H       -1.41179649      -0.73117477       0.99308295        0
H        1.23527122       1.82800961      -0.30781948        0
H        2.13982274      -0.12823087       0.11448995        0
H        1.08124082      -1.47462178       0.33500894        0
O        2.08376043       2.04028651       1.34306062        1
H        1.94734829       1.10018814       1.22542298        1
H        3.00580647       2.12028145       1.58732230        1
O       -3.17466760      -1.11581788       0.26458126        2
H       -3.88628906      -0.47719170       0.30911593        2
H       -2.56674266      -0.75317794      -0.37974117        2
O        0.65279132       5.07344771       0.05335440        3
H        0.57592747       4.20403616       0.44635228        3
H        1.31382123       5.51881084       0.58337608        3
20
Properties=species:S:1:pos:R:3:fragment_id:I:1 config_id=development__stress_dimethyl_sulfone__cluster_3water__compressed molecule_id=stress_dimethyl_sulfone smiles=CS(=O)(=O)C split=development chemical_role=sulfone category=cluster_3water motif=compressed regime=compressed conformer_index=0 n_solute_atoms=11 n_waters=3 nextgen_pool_status=ORIGINAL_DEVELOPMENT pbc="F F F"
C        1.36056946      -0.42353116       0.03232429        0
S        0.05728410       0.78043226       0.10690922        0
O        0.02797016       1.32029865       1.45213484        0
O        0.19008790       1.65049854      -1.04517368        0
C       -1.40632911      -0.19988419      -0.11772434        0
H        1.21717294      -1.14868262       0.83539551        0
H        1.33259294      -0.91359864      -0.94255167        0
H        2.31204970       0.09611812       0.16280122        0
H       -1.35261461      -0.69655516      -1.08816955        0
H       -1.46803310      -0.93163943       0.68977725        0
H       -2.27075039       0.46654362      -0.08572310        0
O        0.44832940       3.33165586      -2.19314818        1
H        0.99474142       3.02740769      -1.46851117        1
H       -0.24554556       2.67591744      -2.26226050        1
O        1.14689452       5.49948172      -3.65653827        2
H        1.60185024       5.13310841      -2.89823904        2
H        0.38957785       4.92755184      -3.78143626        2
O        1.69821414       7.50362277      -5.36096329        3
H        2.14241271       7.29441015      -4.53928844        3
H        1.01368620       6.83919701      -5.43965096        3
20
Properties=species:S:1:pos:R:3:fragment_id:I:1 config_id=development__stress_dimethyl_sulfone__cluster_3water__cooperative molecule_id=stress_dimethyl_sulfone smiles=CS(=O)(=O)C split=development chemical_role=sulfone category=cluster_3water motif=cooperative regime=cooperative conformer_index=0 n_solute_atoms=11 n_waters=3 nextgen_pool_status=ORIGINAL_DEVELOPMENT pbc="F F F"
C        1.36056946      -0.42353116       0.03232429        0
S        0.05728410       0.78043226       0.10690922        0
O        0.02797016       1.32029865       1.45213484        0
O        0.19008790       1.65049854      -1.04517368        0
C       -1.40632911      -0.19988419      -0.11772434        0
H        1.21717294      -1.14868262       0.83539551        0
H        1.33259294      -0.91359864      -0.94255167        0
H        2.31204970       0.09611812       0.16280122        0
H       -1.35261461      -0.69655516      -1.08816955        0
H       -1.46803310      -0.93163943       0.68977725        0
H       -2.27075039       0.46654362      -0.08572310        0
O       -4.47499877      -0.79237247       0.48586951        1
H       -4.05107349       0.06027868       0.38837487        1
H       -3.76928232      -1.42691624       0.36116857        1
O       -7.17764776      -0.67771052       0.92603833        2
H       -6.56822206       0.05406093       0.82938067        2
H       -6.63155970      -1.45850553       0.83450242        2
O       -9.93200436      -0.87450977       1.10850239        3
H       -9.40271282      -0.07781387       1.07165195        3
H       -9.29505419      -1.58787750       1.06809442        3
20
Properties=species:S:1:pos:R:3:fragment_id:I:1 config_id=development__stress_dimethyl_sulfone__cluster_3water__equilibrium molecule_id=stress_dimethyl_sulfone smiles=CS(=O)(=O)C split=development chemical_role=sulfone category=cluster_3water motif=equilibrium regime=equilibrium conformer_index=0 n_solute_atoms=11 n_waters=3 nextgen_pool_status=ORIGINAL_DEVELOPMENT pbc="F F F"
C        1.36056946      -0.42353116       0.03232429        0
S        0.05728410       0.78043226       0.10690922        0
O        0.02797016       1.32029865       1.45213484        0
O        0.19008790       1.65049854      -1.04517368        0
C       -1.40632911      -0.19988419      -0.11772434        0
H        1.21717294      -1.14868262       0.83539551        0
H        1.33259294      -0.91359864      -0.94255167        0
H        2.31204970       0.09611812       0.16280122        0
H       -1.35261461      -0.69655516      -1.08816955        0
H       -1.46803310      -0.93163943       0.68977725        0
H       -2.27075039       0.46654362      -0.08572310        0
O        3.09224082      -2.06920721       0.74267887        1
H        3.03364055      -2.90427905       1.20684789        1
H        3.33542978      -1.43585652       1.41792539        1
O       -4.30196356      -1.26167674      -0.43537660        2
H       -4.20486374      -0.31560657      -0.32695747        2
H       -5.22985658      -1.38642368      -0.63458648        2
O       -2.10622652       4.01222117      -0.06959935        3
H       -1.22060764       3.66990490       0.05177038        3
H       -2.58205898       3.72907561       0.71119762        3
20
Properties=species:S:1:pos:R:3:fragment_id:I:1 config_id=development__stress_dimethyl_sulfone__cluster_3water__orientation molecule_id=stress_dimethyl_sulfone smiles=CS(=O)(=O)C split=development chemical_role=sulfone category=cluster_3water motif=orientation regime=orientation conformer_index=0 n_solute_atoms=11 n_waters=3 nextgen_pool_status=ORIGINAL_DEVELOPMENT pbc="F F F"
C        1.36056946      -0.42353116       0.03232429        0
S        0.05728410       0.78043226       0.10690922        0
O        0.02797016       1.32029865       1.45213484        0
O        0.19008790       1.65049854      -1.04517368        0
C       -1.40632911      -0.19988419      -0.11772434        0
H        1.21717294      -1.14868262       0.83539551        0
H        1.33259294      -0.91359864      -0.94255167        0
H        2.31204970       0.09611812       0.16280122        0
H       -1.35261461      -0.69655516      -1.08816955        0
H       -1.46803310      -0.93163943       0.68977725        0
H       -2.27075039       0.46654362      -0.08572310        0
O        3.09224082      -2.06920721       0.74267887        1
H        3.19371868      -1.22102035       0.31080722        1
H        3.37029053      -2.70768267       0.08596790        1
O       -4.30196356      -1.26167674      -0.43537660        2
H       -4.16335991      -0.77201406      -1.24608699        2
H       -4.02638987      -0.66156096       0.25755343        2
O       -2.10622652       4.01222117      -0.06959935        3
H       -1.91345585       3.40633021       0.64591965        3
H       -1.39654138       4.65379432      -0.03857134        3
19
Properties=species:S:1:pos:R:3:fragment_id:I:1 config_id=development__stress_methanesulfonamide__cluster_3water__compressed molecule_id=stress_methanesulfonamide smiles=CS(=O)(=O)N split=development chemical_role="sulfonamide donor acceptor" category=cluster_3water motif=compressed regime=compressed conformer_index=0 n_solute_atoms=10 n_waters=3 nextgen_pool_status=ORIGINAL_DEVELOPMENT pbc="F F F"
C       -1.29752624      -0.31432314       0.07438361        0
S        0.19228231       0.64338671      -0.09761863        0
O        0.29594739       1.13612332      -1.45030644        0
O        0.35147654       1.49942606       1.05353476        0
N        1.37468474      -0.53513056       0.04715927        0
H       -1.29796966      -0.79497464       1.05432818        0
H       -2.14633726       0.36812632      -0.00581235        0
H       -1.33749119      -1.05353679      -0.72766566        0
H        1.91373278      -0.59711652      -0.81872473        0
H        1.95120059      -0.35198074       0.87072198        0
O        0.54733050       3.08014963       2.25316206        1
H        1.08984111       2.84516243       1.50037052        1
H       -0.11027108       2.38624566       2.30100859        1
O        1.08203654       5.49097608       3.77582211        2
H        1.60307734       5.12022804       3.06357621        2
H        0.34502746       4.88798898       3.87306414        2
O        1.88813013       7.73706295       5.24818431        3
H        2.32603679       7.34306211       4.49370904        3
H        1.11336746       7.19245337       5.38737861        3
19
Properties=species:S:1:pos:R:3:fragment_id:I:1 config_id=development__stress_methanesulfonamide__cluster_3water__cooperative molecule_id=stress_methanesulfonamide smiles=CS(=O)(=O)N split=development chemical_role="sulfonamide donor acceptor" category=cluster_3water motif=cooperative regime=cooperative conformer_index=0 n_solute_atoms=10 n_waters=3 nextgen_pool_status=ORIGINAL_DEVELOPMENT pbc="F F F"
C       -1.29752624      -0.31432314       0.07438361        0
S        0.19228231       0.64338671      -0.09761863        0
O        0.29594739       1.13612332      -1.45030644        0
O        0.35147654       1.49942606       1.05353476        0
N        1.37468474      -0.53513056       0.04715927        0
H       -1.29796966      -0.79497464       1.05432818        0
H       -2.14633726       0.36812632      -0.00581235        0
H       -1.33749119      -1.05353679      -0.72766566        0
H        1.91373278      -0.59711652      -0.81872473        0
H        1.95120059      -0.35198074       0.87072198        0
O        0.84001842       2.88344461      -3.36911732        1
H        1.21861022       2.84076348      -2.49100661        1
H        0.22099697       2.15396949      -3.39928906        1
O        1.17666627       4.40919050      -5.60550099        2
H        1.52770562       4.56839030      -4.72933969        2
H        0.68103215       3.59466237      -5.52110552        2
O        1.69984786       6.18491494      -7.64036819        3
H        2.07703427       6.17420824      -6.76068210        3
H        1.09981090       5.43924723      -7.65329735        3
19
Properties=species:S:1:pos:R:3:fragment_id:I:1 config_id=development__stress_methanesulfonamide__cluster_3water__equilibrium molecule_id=stress_methanesulfonamide smiles=CS(=O)(=O)N split=development chemical_role="sulfonamide donor acceptor" category=cluster_3water motif=equilibrium regime=equilibrium conformer_index=0 n_solute_atoms=10 n_waters=3 nextgen_pool_status=ORIGINAL_DEVELOPMENT pbc="F F F"
C       -1.29752624      -0.31432314       0.07438361        0
S        0.19228231       0.64338671      -0.09761863        0
O        0.29594739       1.13612332      -1.45030644        0
O        0.35147654       1.49942606       1.05353476        0
N        1.37468474      -0.53513056       0.04715927        0
H       -1.29796966      -0.79497464       1.05432818        0
H       -2.14633726       0.36812632      -0.00581235        0
H       -1.33749119      -1.05353679      -0.72766566        0
H        1.91373278      -0.59711652      -0.81872473        0
H        1.95120059      -0.35198074       0.87072198        0
O        1.67924718       2.75223786      -1.39171660        1
H        2.63339396       2.76172418      -1.46751746        1
H        1.46439183       3.58017919      -0.96208633        1
O        3.58516064      -1.59868229      -0.27283412        2
H        4.00839246      -1.54856549       0.58425104        2
H        4.18750414      -1.14794030      -0.86464980        2
O       -4.04298453      -1.56900897      -1.63754414        3
H       -3.23314015      -1.08319115      -1.48145132        3
H       -4.13968172      -1.57469223      -2.58983044        3
19
Properties=species:S:1:pos:R:3:fragment_id:I:1 config_id=development__stress_methanesulfonamide__cluster_3water__orientation molecule_id=stress_methanesulfonamide smiles=CS(=O)(=O)N split=development chemical_role="sulfonamide donor acceptor" category=cluster_3water motif=orientation regime=orientation conformer_index=0 n_solute_atoms=10 n_waters=3 nextgen_pool_status=ORIGINAL_DEVELOPMENT pbc="F F F"
C       -1.29752624      -0.31432314       0.07438361        0
S        0.19228231       0.64338671      -0.09761863        0
O        0.29594739       1.13612332      -1.45030644        0
O        0.35147654       1.49942606       1.05353476        0
N        1.37468474      -0.53513056       0.04715927        0
H       -1.29796966      -0.79497464       1.05432818        0
H       -2.14633726       0.36812632      -0.00581235        0
H       -1.33749119      -1.05353679      -0.72766566        0
H        1.91373278      -0.59711652      -0.81872473        0
H        1.95120059      -0.35198074       0.87072198        0
O        1.67924718       2.75223786      -1.39171660        1
H        1.96065915       3.55659344      -0.95576794        1
H        2.15856819       2.74800465      -2.22024861        1
O        3.58516064      -1.59868229      -0.27283412        2
H        3.88961328      -2.01641610      -1.07846362        2
H        3.41408874      -2.32639975       0.32498988        2
O       -4.04298453      -1.56900897      -1.63754414        3
H       -4.72303706      -1.29604140      -2.25337618        3
H       -4.15937638      -2.51556217      -1.55555749        3
19
Properties=species:S:1:pos:R:3:fragment_id:I:1 config_id=development__stress_methyl_sulfoxide__cluster_3water__compressed molecule_id=stress_methyl_sulfoxide smiles=CS(=O)C split=development chemical_role=sulfoxide category=cluster_3water motif=compressed regime=compressed conformer_index=0 n_solute_atoms=10 n_waters=3 nextgen_pool_status=ORIGINAL_DEVELOPMENT pbc="F F F"
C        1.33574772      -0.12709590      -0.21493118        0
S        0.07665144       0.41184762       0.96707515        0
O       -0.01327127       1.90664493       0.88010813        0
C       -1.33020716      -0.27159803       0.05791436        0
H        1.34236120      -1.21823882      -0.26836233        0
H        2.31087043       0.22364491       0.13115206        0
H        1.12755682       0.29569439      -1.20068659        0
H       -1.23071746      -1.35770665      -0.00502162        0
H       -1.37185545       0.16021845      -0.94488595        0
H       -2.24713626      -0.02341091       0.59763797        0
O        0.15489555       3.77082855       1.60991887        1
H        0.80823945       3.27283404       1.11861951        1
H       -0.59653289       3.18152421       1.67555074        1
O        0.09110525       6.41051986       2.38847532        2
H        0.83051638       5.92543582       2.02214693        2
H       -0.62115323       5.77200640       2.42340735        2
O        0.19976957       9.12245991       3.19056728        3
H        0.90260715       8.59521301       2.81074905        3
H       -0.54805812       8.52688667       3.23829667        3
19
Properties=species:S:1:pos:R:3:fragment_id:I:1 config_id=development__stress_methyl_sulfoxide__cluster_3water__cooperative molecule_id=stress_methyl_sulfoxide smiles=CS(=O)C split=development chemical_role=sulfoxide category=cluster_3water motif=cooperative regime=cooperative conformer_index=0 n_solute_atoms=10 n_waters=3 nextgen_pool_status=ORIGINAL_DEVELOPMENT pbc="F F F"
C        1.33574772      -0.12709590      -0.21493118        0
S        0.07665144       0.41184762       0.96707515        0
O       -0.01327127       1.90664493       0.88010813        0
C       -1.33020716      -0.27159803       0.05791436        0
H        1.34236120      -1.21823882      -0.26836233        0
H        2.31087043       0.22364491       0.13115206        0
H        1.12755682       0.29569439      -1.20068659        0
H       -1.23071746      -1.35770665      -0.00502162        0
H       -1.37185545       0.16021845      -0.94488595        0
H       -2.24713626      -0.02341091       0.59763797        0
O       -0.23846679       1.92732790       3.67368900        1
H        0.18865899       2.23710253       2.87504321        1
H       -0.54716797       1.04802055       3.45516209        1
O       -0.97173693       3.16164571       6.07473007        2
H       -0.48419152       3.54334183       5.34477160        2
H       -1.15214811       2.26294877       5.79899928        2
O       -1.64234820       4.46059248       8.46833725        3
H       -1.15169400       4.81517197       7.72687674        3
H       -1.85283029       3.56333099       8.20978176        3
19
Properties=species:S:1:pos:R:3:fragment_id:I:1 config_id=development__stress_methyl_sulfoxide__cluster_3water__equilibrium molecule_id=stress_methyl_sulfoxide smiles=CS(=O)C split=development chemical_role=sulfoxide category=cluster_3water motif=equilibrium regime=equilibrium conformer_index=0 n_solute_atoms=10 n_waters=3 nextgen_pool_status=ORIGINAL_DEVELOPMENT pbc="F F F"
C        1.33574772      -0.12709590      -0.21493118        0
S        0.07665144       0.41184762       0.96707515        0
O       -0.01327127       1.90664493       0.88010813        0
C       -1.33020716      -0.27159803       0.05791436        0
H        1.34236120      -1.21823882      -0.26836233        0
H        2.31087043       0.22364491       0.13115206        0
H        1.12755682       0.29569439      -1.20068659        0
H       -1.23071746      -1.35770665      -0.00502162        0
H       -1.37185545       0.16021845      -0.94488595        0
H       -2.24713626      -0.02341091       0.59763797        0
O       -0.07207198       5.39924146       1.35841617        1
H       -0.18655707       5.51475351       0.41513361        1
H       -0.30440167       4.48450225       1.51812509        1
O        0.53910648      -0.19661929       3.43880999        2
H        1.34182065      -0.26878816       3.95521434        2
H        0.53166307       0.71013673       3.13226481        2
O        5.10750763       0.62685810      -1.29269579        3
H        4.25854650       0.52236185      -0.86307111        3
H        4.89715988       0.97998436      -2.15715371        3
19
Properties=species:S:1:pos:R:3:fragment_id:I:1 config_id=development__stress_methyl_sulfoxide__cluster_3water__orientation molecule_id=stress_methyl_sulfoxide smiles=CS(=O)C split=development chemical_role=sulfoxide category=cluster_3water motif=orientation regime=orientation conformer_index=0 n_solute_atoms=10 n_waters=3 nextgen_pool_status=ORIGINAL_DEVELOPMENT pbc="F F F"
C        1.33574772      -0.12709590      -0.21493118        0
S        0.07665144       0.41184762       0.96707515        0
O       -0.01327127       1.90664493       0.88010813        0
C       -1.33020716      -0.27159803       0.05791436        0
H        1.34236120      -1.21823882      -0.26836233        0
H        2.31087043       0.22364491       0.13115206        0
H        1.12755682       0.29569439      -1.20068659        0
H       -1.23071746      -1.35770665      -0.00502162        0
H       -1.37185545       0.16021845      -0.94488595        0
H       -2.24713626      -0.02341091       0.59763797        0
O       -0.07207198       5.39924146       1.35841617        1
H        0.37820753       5.76048023       0.59488048        1
H        0.50687283       4.70445244       1.67198110        1
O        0.53910648      -0.19661929       3.43880999        2
H        0.00254428      -0.27970657       2.65050209        2
H        1.40219728      -0.51677000       3.17649411        2
O        5.10750763       0.62685810      -1.29269579        3
H        4.86949358      -0.28561254      -1.45694705        3
H        4.78560465       0.80345338      -0.40871365        3
19
Properties=species:S:1:pos:R:3:fragment_id:I:1 config_id=development__stress_nitroethane__cluster_3water__compressed molecule_id=stress_nitroethane smiles="CC[N+](=O)[O-]" split=development chemical_role="zwitterionic resonance nitro" category=cluster_3water motif=compressed regime=compressed conformer_index=0 n_solute_atoms=10 n_waters=3 nextgen_pool_status=ORIGINAL_DEVELOPMENT pbc="F F F"
C       -1.08655935      -0.26912393       0.19921890        0
C        0.07989359       0.51994263      -0.35712221        0
N        1.35131897      -0.14039219       0.07755178        0
O        1.84023896       0.23136064       1.15159617        0
O        1.81524379      -1.01344334      -0.66633626        0
H       -1.08003052      -1.30191745      -0.16584906        0
H       -1.05995946      -0.30242604       1.29382519        0
H       -2.03250044       0.19100393      -0.10284164        0
H        0.09629761       1.54650252       0.02103456        0
H        0.07605685       0.53849323      -1.45107745        0
O        3.49738392      -2.11724988      -1.11252288        1
H        2.61373373      -2.22820865      -1.46335378        1
H        3.42459357      -1.37868267      -0.50799673        1
O        5.43361335      -3.62637077      -2.36583245        2
H        4.60760448      -3.31130683      -2.73281460        2
H        5.43648932      -3.29987487      -1.46604137        2
O        7.60763447      -5.35999374      -3.25879254        3
H        6.72216759      -5.29881900      -3.61717486        3
H        7.62083300      -4.72559822      -2.54213365        3
19
Properties=species:S:1:pos:R:3:fragment_id:I:1 config_id=development__stress_nitroethane__cluster_3water__cooperative molecule_id=stress_nitroethane smiles="CC[N+](=O)[O-]" split=development chemical_role="zwitterionic resonance nitro" category=cluster_3water motif=cooperative regime=cooperative conformer_index=0 n_solute_atoms=10 n_waters=3 nextgen_pool_status=ORIGINAL_DEVELOPMENT pbc="F F F"
C       -1.08655935      -0.26912393       0.19921890        0
C        0.07989359       0.51994263      -0.35712221        0
N        1.35131897      -0.14039219       0.07755178        0
O        1.84023896       0.23136064       1.15159617        0
O        1.81524379      -1.01344334      -0.66633626        0
H       -1.08003052      -1.30191745      -0.16584906        0
H       -1.05995946      -0.30242604       1.29382519        0
H       -2.03250044       0.19100393      -0.10284164        0
H        0.09629761       1.54650252       0.02103456        0
H        0.07605685       0.53849323      -1.45107745        0
O        3.71035218      -2.01941010      -1.47358403        1
H        2.89383451      -1.84645681      -1.94221811        1
H        3.55817760      -1.67815945      -0.59232202        1
O        5.99747427      -3.46726308      -1.75870606        2
H        5.10251985      -3.73965731      -1.96141229        2
H        5.90781798      -2.57156520      -1.43325422        2
O        8.41643737      -4.79703129      -2.43074716        3
H        7.56328972      -4.88218126      -2.85632961        3
H        8.27189020      -4.16342200      -1.72798317        3
19
Properties=species:S:1:pos:R:3:fragment_id:I:1 config_id=development__stress_nitroethane__cluster_3water__equilibrium molecule_id=stress_nitroethane smiles="CC[N+](=O)[O-]" split=development chemical_role="zwitterionic resonance nitro" category=cluster_3water motif=equilibrium regime=equilibrium conformer_index=0 n_solute_atoms=10 n_waters=3 nextgen_pool_status=ORIGINAL_DEVELOPMENT pbc="F F F"
C       -1.08655935      -0.26912393       0.19921890        0
C        0.07989359       0.51994263      -0.35712221        0
N        1.35131897      -0.14039219       0.07755178        0
O        1.84023896       0.23136064       1.15159617        0
O        1.81524379      -1.01344334      -0.66633626        0
H       -1.08003052      -1.30191745      -0.16584906        0
H       -1.05995946      -0.30242604       1.29382519        0
H       -2.03250044       0.19100393      -0.10284164        0
H        0.09629761       1.54650252       0.02103456        0
H        0.07605685       0.53849323      -1.45107745        0
O        4.14038162      -0.17176353       2.13051713        1
H        3.90867978       0.70035182       1.81120393        1
H        5.05875682      -0.09631114       2.38960357        1
O        3.56006138      -1.38611774      -1.74861736        2
H        3.76635667      -2.25770317      -1.41095935        2
H        4.20150248      -1.24010479      -2.44393410        2
O       -3.66427926      -0.70813926       0.50413246        3
H       -2.96227954      -1.27775711       0.81871748        3
H       -3.98413928      -0.26504220       1.28999912        3
19
Properties=species:S:1:pos:R:3:fragment_id:I:1 config_id=development__stress_nitroethane__cluster_3water__orientation molecule_id=stress_nitroethane smiles="CC[N+](=O)[O-]" split=development chemical_role="zwitterionic resonance nitro" category=cluster_3water motif=orientation regime=orientation conformer_index=0 n_solute_atoms=10 n_waters=3 nextgen_pool_status=ORIGINAL_DEVELOPMENT pbc="F F F"
C       -1.08655935      -0.26912393       0.19921890        0
C        0.07989359       0.51994263      -0.35712221        0
N        1.35131897      -0.14039219       0.07755178        0
O        1.84023896       0.23136064       1.15159617        0
O        1.81524379      -1.01344334      -0.66633626        0
H       -1.08003052      -1.30191745      -0.16584906        0
H       -1.05995946      -0.30242604       1.29382519        0
H       -2.03250044       0.19100393      -0.10284164        0
H        0.09629761       1.54650252       0.02103456        0
H        0.07605685       0.53849323      -1.45107745        0
O        4.14038162      -0.17176353       2.13051713        1
H        4.06126417      -0.33299481       1.19031676        1
H        3.57386039      -0.82868269       2.53516852        1
O        3.56006138      -1.38611774      -1.74861736        2
H        4.35779853      -1.46255536      -2.27207182        2
H        3.72066126      -1.93941865      -0.98422373        2
O       -3.66427926      -0.70813926       0.50413246        3
H       -2.77314041      -0.48984603       0.77699040        3
H       -4.01899579      -1.22054335       1.23066536        3
21
Properties=species:S:1:pos:R:3:fragment_id:I:1 config_id=development__stress_pyridine_n_oxide__cluster_3water__compressed molecule_id=stress_pyridine_n_oxide smiles="[O-][n+]1ccccc1" split=development chemical_role="aromatic N oxide" category=cluster_3water motif=compressed regime=compressed conformer_index=0 n_solute_atoms=12 n_waters=3 nextgen_pool_status=ORIGINAL_DEVELOPMENT pbc="F F F"
O       -1.95647405      -1.75183733      -0.27781868        0
N       -1.01686880      -0.91051058      -0.14439874        0
C        0.28807607      -1.32997052       0.04865315        0
C        1.33127939      -0.41682823       0.19688918        0
C        1.05706802       0.94650537       0.15010891        0
C       -0.24889400       1.38600233      -0.04318919        0
C       -1.27152145       0.44938672      -0.18831018        0
H        0.39438266      -2.40352801       0.06945373        0
H        2.34729336      -0.77124109       0.34732618        0
H        1.86327121       1.66838550       0.26459681        0
H       -0.47449544       2.44815541      -0.08138485        0
H       -2.31311697       0.68548043      -0.34192632        0
O        0.11719703      -4.51068244       0.03934900        1
H       -0.60722987      -3.88503289       0.03896492        1
H        0.90448433      -3.96625976       0.04315575        1
O       -0.19029937      -7.19249791       0.38554209        2
H       -0.87001550      -6.51862640       0.39626665        2
H        0.62181212      -6.71168947       0.22576095        2
O       -0.06347685     -10.12169482       0.33425465        3
H       -0.84494177      -9.56894566       0.33067928        3
H        0.66731059      -9.50395521       0.35832416        3
21
Properties=species:S:1:pos:R:3:fragment_id:I:1 config_id=development__stress_pyridine_n_oxide__cluster_3water__cooperative molecule_id=stress_pyridine_n_oxide smiles="[O-][n+]1ccccc1" split=development chemical_role="aromatic N oxide" category=cluster_3water motif=cooperative regime=cooperative conformer_index=0 n_solute_atoms=12 n_waters=3 nextgen_pool_status=ORIGINAL_DEVELOPMENT pbc="F F F"
O       -1.95647405      -1.75183733      -0.27781868        0
N       -1.01686880      -0.91051058      -0.14439874        0
C        0.28807607      -1.32997052       0.04865315        0
C        1.33127939      -0.41682823       0.19688918        0
C        1.05706802       0.94650537       0.15010891        0
C       -0.24889400       1.38600233      -0.04318919        0
C       -1.27152145       0.44938672      -0.18831018        0
H        0.39438266      -2.40352801       0.06945373        0
H        2.34729336      -0.77124109       0.34732618        0
H        1.86327121       1.66838550       0.26459681        0
H       -0.47449544       2.44815541      -0.08138485        0
H       -2.31311697       0.68548043      -0.34192632        0
O        4.45227994       2.56250114      -0.05461724        1
H        4.24887626       1.65134831       0.15671025        1
H        3.59921504       2.97081385      -0.20224127        1
O        6.99887509       3.72376474      -0.51356838        2
H        6.78274957       2.99831453       0.07230155        2
H        6.16290382       3.96945212      -0.90982788        2
O        9.49807530       4.93179192      -0.91440332        3
H        9.30203562       4.14689346      -0.40280319        3
H        8.64996128       5.21198250      -1.25853655        3
21
Properties=species:S:1:pos:R:3:fragment_id:I:1 config_id=development__stress_pyridine_n_oxide__cluster_3water__equilibrium molecule_id=stress_pyridine_n_oxide smiles="[O-][n+]1ccccc1" split=development chemical_role="aromatic N oxide" category=cluster_3water motif=equilibrium regime=equilibrium conformer_index=0 n_solute_atoms=12 n_waters=3 nextgen_pool_status=ORIGINAL_DEVELOPMENT pbc="F F F"
O       -1.95647405      -1.75183733      -0.27781868        0
N       -1.01686880      -0.91051058      -0.14439874        0
C        0.28807607      -1.32997052       0.04865315        0
C        1.33127939      -0.41682823       0.19688918        0
C        1.05706802       0.94650537       0.15010891        0
C       -0.24889400       1.38600233      -0.04318919        0
C       -1.27152145       0.44938672      -0.18831018        0
H        0.39438266      -2.40352801       0.06945373        0
H        2.34729336      -0.77124109       0.34732618        0
H        1.86327121       1.66838550       0.26459681        0
H       -0.47449544       2.44815541      -0.08138485        0
H       -2.31311697       0.68548043      -0.34192632        0
O       -4.41198312       1.59957122      -1.33779787        1
H       -5.24781965       1.75897002      -1.77620540        1
H       -3.78446074       2.14524478      -1.81181038        1
O       -1.14637293       4.72381108       0.79582689        2
H       -1.22179269       4.79917674      -0.15541636        2
H       -2.04837762       4.77145129       1.11260724        2
O        3.99322172       0.38418290       2.35210953        3
H        3.63799859      -0.37762537       1.89418319        3
H        4.94101939       0.31121376       2.23991810        3
21
Properties=species:S:1:pos:R:3:fragment_id:I:1 config_id=development__stress_pyridine_n_oxide__cluster_3water__orientation molecule_id=stress_pyridine_n_oxide smiles="[O-][n+]1ccccc1" split=development chemical_role="aromatic N oxide" category=cluster_3water motif=orientation regime=orientation conformer_index=0 n_solute_atoms=12 n_waters=3 nextgen_pool_status=ORIGINAL_DEVELOPMENT pbc="F F F"
O       -1.95647405      -1.75183733      -0.27781868        0
N       -1.01686880      -0.91051058      -0.14439874        0
C        0.28807607      -1.32997052       0.04865315        0
C        1.33127939      -0.41682823       0.19688918        0
C        1.05706802       0.94650537       0.15010891        0
C       -0.24889400       1.38600233      -0.04318919        0
C       -1.27152145       0.44938672      -0.18831018        0
H        0.39438266      -2.40352801       0.06945373        0
H        2.34729336      -0.77124109       0.34732618        0
H        1.86327121       1.66838550       0.26459681        0
H       -0.47449544       2.44815541      -0.08138485        0
H       -2.31311697       0.68548043      -0.34192632        0
O       -4.41198312       1.59957122      -1.33779787        1
H       -3.89493954       2.38958219      -1.18037983        1
H       -4.51053513       1.20100041      -0.47312414        1
O       -1.14637293       4.72381108       0.79582689        2
H       -1.74053341       5.10063160       1.44483495        2
H       -0.68018006       4.03452383       1.26887987        2
O        3.99322172       0.38418290       2.35210953        3
H        4.84211816       0.58796921       1.95958206        3
H        3.75912343       1.17328176       2.84073291        3
28
Properties=species:S:1:pos:R:3:fragment_id:I:1 config_id=prospective__pros_azaaryl_sulfoxide__cluster_3water__compressed molecule_id=pros_azaaryl_sulfoxide smiles=COc1nc(S(=O)C)cc(F)n1 split=prospective chemical_role="diaza aryl ether sulfoxide fluoride" category=cluster_3water motif=compressed regime=compressed conformer_index=0 n_solute_atoms=19 n_waters=3 nextgen_pool_status=OLD_PROSPECTIVE_NOW_DEVELOPMENT pbc="F F F"
C        3.17651484       1.35488885       0.39946798        0
O        1.91300562       1.48415014      -0.23962818        0
C        1.13971874       0.34845815      -0.14743627        0
N       -0.04567943       0.43584222      -0.75963935        0
C       -0.82488308      -0.65577074      -0.67645797        0
S       -2.37992174      -0.47230087      -1.54769839        0
O       -3.23271161      -1.62737381      -1.10533843        0
C       -2.96870904       1.00841351      -0.69220220        0
C       -0.47197492      -1.81039939      -0.03218182        0
C        0.76215736      -1.77239215       0.55360410        0
F        1.18670493      -2.86115596       1.21089413        0
N        1.59123028      -0.71762553       0.52010619        0
H        3.77597091       0.56098616      -0.05970864        0
H        3.71627687       2.29733540       0.26472412        0
H        3.06258256       1.18929449       1.47649839        0
H       -2.34912142       1.86674986      -0.96232667        0
H       -3.99739161       1.20170700      -1.00657950        0
H       -2.94781335       0.85219000       0.38930863        0
H       -1.10595590      -2.68299733       0.01716570        0
O       -5.77341778       2.37054203      -0.96942301        1
H       -4.91908686       2.79695149      -0.90215123        1
H       -5.57785508       1.43424360      -0.93292203        1
O       -8.43024389       3.12662847      -1.47465681        2
H       -7.67212398       3.69763405      -1.35040439        2
H       -8.07973883       2.24012753      -1.38808821        2
O      -11.22858364       3.93125261      -1.90884440        3
H      -10.46478542       4.49908119      -1.80679139        3
H      -10.87856108       3.04316017      -1.83807809        3
28
Properties=species:S:1:pos:R:3:fragment_id:I:1 config_id=prospective__pros_azaaryl_sulfoxide__cluster_3water__cooperative molecule_id=pros_azaaryl_sulfoxide smiles=COc1nc(S(=O)C)cc(F)n1 split=prospective chemical_role="diaza aryl ether sulfoxide fluoride" category=cluster_3water motif=cooperative regime=cooperative conformer_index=0 n_solute_atoms=19 n_waters=3 nextgen_pool_status=OLD_PROSPECTIVE_NOW_DEVELOPMENT pbc="F F F"
C        3.17651484       1.35488885       0.39946798        0
O        1.91300562       1.48415014      -0.23962818        0
C        1.13971874       0.34845815      -0.14743627        0
N       -0.04567943       0.43584222      -0.75963935        0
C       -0.82488308      -0.65577074      -0.67645797        0
S       -2.37992174      -0.47230087      -1.54769839        0
O       -3.23271161      -1.62737381      -1.10533843        0
C       -2.96870904       1.00841351      -0.69220220        0
C       -0.47197492      -1.81039939      -0.03218182        0
C        0.76215736      -1.77239215       0.55360410        0
F        1.18670493      -2.86115596       1.21089413        0
N        1.59123028      -0.71762553       0.52010619        0
H        3.77597091       0.56098616      -0.05970864        0
H        3.71627687       2.29733540       0.26472412        0
H        3.06258256       1.18929449       1.47649839        0
H       -2.34912142       1.86674986      -0.96232667        0
H       -3.99739161       1.20170700      -1.00657950        0
H       -2.94781335       0.85219000       0.38930863        0
H       -1.10595590      -2.68299733       0.01716570        0
O        2.37302163      -5.12729071       1.95798227        1
H        1.46847156      -4.85879504       2.11901359        1
H        2.75591392      -4.39930136       1.46843467        1
O        3.67523932      -7.59276835       2.83048021        2
H        2.77531723      -7.31394468       2.99968253        2
H        4.05287729      -6.88275593       2.31134268        2
O        4.99608646      -9.81270055       3.91618182        3
H        4.12021368      -9.49036947       4.12874094        3
H        5.31960584      -9.20669777       3.24960274        3
28
Properties=species:S:1:pos:R:3:fragment_id:I:1 config_id=prospective__pros_azaaryl_sulfoxide__cluster_3water__equilibrium molecule_id=pros_azaaryl_sulfoxide smiles=COc1nc(S(=O)C)cc(F)n1 split=prospective chemical_role="diaza aryl ether sulfoxide fluoride" category=cluster_3water motif=equilibrium regime=equilibrium conformer_index=0 n_solute_atoms=19 n_waters=3 nextgen_pool_status=OLD_PROSPECTIVE_NOW_DEVELOPMENT pbc="F F F"
C        3.17651484       1.35488885       0.39946798        0
O        1.91300562       1.48415014      -0.23962818        0
C        1.13971874       0.34845815      -0.14743627        0
N       -0.04567943       0.43584222      -0.75963935        0
C       -0.82488308      -0.65577074      -0.67645797        0
S       -2.37992174      -0.47230087      -1.54769839        0
O       -3.23271161      -1.62737381      -1.10533843        0
C       -2.96870904       1.00841351      -0.69220220        0
C       -0.47197492      -1.81039939      -0.03218182        0
C        0.76215736      -1.77239215       0.55360410        0
F        1.18670493      -2.86115596       1.21089413        0
N        1.59123028      -0.71762553       0.52010619        0
H        3.77597091       0.56098616      -0.05970864        0
H        3.71627687       2.29733540       0.26472412        0
H        3.06258256       1.18929449       1.47649839        0
H       -2.34912142       1.86674986      -0.96232667        0
H       -3.99739161       1.20170700      -1.00657950        0
H       -2.94781335       0.85219000       0.38930863        0
H       -1.10595590      -2.68299733       0.01716570        0
O        3.45943441      -1.49683897       2.02559942        1
H        2.73337853      -2.08206904       2.24142449        1
H        3.42902294      -0.81797670       2.69973071        1
O        6.64406530       2.46811331       1.08294676        2
H        6.25406526       3.31045017       1.31661409        2
H        6.11210848       2.15164958       0.35280672        2
O       -5.48379553      -1.18381086      -3.87777613        3
H       -4.75342147      -1.44333245      -3.31614090        3
H       -5.22255625      -0.33470735      -4.23415949        3
28
Properties=species:S:1:pos:R:3:fragment_id:I:1 config_id=prospective__pros_azaaryl_sulfoxide__cluster_3water__orientation molecule_id=pros_azaaryl_sulfoxide smiles=COc1nc(S(=O)C)cc(F)n1 split=prospective chemical_role="diaza aryl ether sulfoxide fluoride" category=cluster_3water motif=orientation regime=orientation conformer_index=0 n_solute_atoms=19 n_waters=3 nextgen_pool_status=OLD_PROSPECTIVE_NOW_DEVELOPMENT pbc="F F F"
C        3.17651484       1.35488885       0.39946798        0
O        1.91300562       1.48415014      -0.23962818        0
C        1.13971874       0.34845815      -0.14743627        0
N       -0.04567943       0.43584222      -0.75963935        0
C       -0.82488308      -0.65577074      -0.67645797        0
S       -2.37992174      -0.47230087      -1.54769839        0
O       -3.23271161      -1.62737381      -1.10533843        0
C       -2.96870904       1.00841351      -0.69220220        0
C       -0.47197492      -1.81039939      -0.03218182        0
C        0.76215736      -1.77239215       0.55360410        0
F        1.18670493      -2.86115596       1.21089413        0
N        1.59123028      -0.71762553       0.52010619        0
H        3.77597091       0.56098616      -0.05970864        0
H        3.71627687       2.29733540       0.26472412        0
H        3.06258256       1.18929449       1.47649839        0
H       -2.34912142       1.86674986      -0.96232667        0
H       -3.99739161       1.20170700      -1.00657950        0
H       -2.94781335       0.85219000       0.38930863        0
H       -1.10595590      -2.68299733       0.01716570        0
O        3.45943441      -1.49683897       2.02559942        1
H        4.20213368      -1.98376895       2.38271121        1
H        3.65611396      -0.58091996       2.22217347        1
O        6.64406530       2.46811331       1.08294676        2
H        6.53710576       1.68608815       1.62445222        2
H        5.82958719       2.52750020       0.58361677        2
O       -5.48379553      -1.18381086      -3.87777613        3
H       -6.22352094      -1.53987830      -4.36996931        3
H       -5.68765384      -1.37936087      -2.96320857        3
27
Properties=species:S:1:pos:R:3:fragment_id:I:1 config_id=prospective__pros_cyano_cyclic_acetal__cluster_3water__compressed molecule_id=pros_cyano_cyclic_acetal smiles=COC1(C#N)CC(O)C1Cl split=prospective chemical_role="cyclic ether alcohol nitrile chloride" category=cluster_3water motif=compressed regime=compressed conformer_index=0 n_solute_atoms=18 n_waters=3 nextgen_pool_status=OLD_PROSPECTIVE_NOW_DEVELOPMENT pbc="F F F"
C       -2.65598389      -0.00226191       0.22404731        0
O       -1.43982410      -0.54185535       0.73063575        0
C       -0.25573081      -0.44231724      -0.11444553        0
C       -0.40800086      -1.23828723      -1.32897479        0
N       -0.53076444      -1.83244665      -2.31893599        0
C        0.26958068       1.00596289      -0.36595692        0
C        1.70823395       0.48290146      -0.16323860        0
O        2.60045082       1.36774969       0.53860932        0
C        1.09115984      -0.68035026       0.65577328        0
Cl       1.93914931      -2.27344788       0.63422319        0
H       -3.40323963      -0.03446397       1.02128641        0
H       -2.51820104       1.03749348      -0.08471345        0
H       -3.01780967      -0.60011823      -0.61670985        0
H        0.06896770       1.42828302      -1.35592395        0
H       -0.05008189       1.73618985       0.38770047        0
H        2.16503984       0.15773634      -1.10727326        0
H        3.43228741       0.86913509       0.63955261        0
H        1.00476679      -0.43990310       1.72411120        0
O       -1.78076362      -3.15319247      -1.42136389        1
H       -2.05439701      -2.23597014      -1.41363119        1
H       -0.82494343      -3.11881332      -1.38318434        1
O       -2.68562407      -5.46718151      -2.79342673        2
H       -3.11596567      -4.61407697      -2.73641279        2
H       -1.88171794      -5.36497386      -2.28399530        2
O       -3.57063836      -7.64087269      -4.09955310        3
H       -3.99018301      -6.78266960      -4.03871240        3
H       -2.76499526      -7.55077605      -3.59057998        3
27
Properties=species:S:1:pos:R:3:fragment_id:I:1 config_id=prospective__pros_cyano_cyclic_acetal__cluster_3water__cooperative molecule_id=pros_cyano_cyclic_acetal smiles=COC1(C#N)CC(O)C1Cl split=prospective chemical_role="cyclic ether alcohol nitrile chloride" category=cluster_3water motif=cooperative regime=cooperative conformer_index=0 n_solute_atoms=18 n_waters=3 nextgen_pool_status=OLD_PROSPECTIVE_NOW_DEVELOPMENT pbc="F F F"
C       -2.65598389      -0.00226191       0.22404731        0
O       -1.43982410      -0.54185535       0.73063575        0
C       -0.25573081      -0.44231724      -0.11444553        0
C       -0.40800086      -1.23828723      -1.32897479        0
N       -0.53076444      -1.83244665      -2.31893599        0
C        0.26958068       1.00596289      -0.36595692        0
C        1.70823395       0.48290146      -0.16323860        0
O        2.60045082       1.36774969       0.53860932        0
C        1.09115984      -0.68035026       0.65577328        0
Cl       1.93914931      -2.27344788       0.63422319        0
H       -3.40323963      -0.03446397       1.02128641        0
H       -2.51820104       1.03749348      -0.08471345        0
H       -3.01780967      -0.60011823      -0.61670985        0
H        0.06896770       1.42828302      -1.35592395        0
H       -0.05008189       1.73618985       0.38770047        0
H        2.16503984       0.15773634      -1.10727326        0
H        3.43228741       0.86913509       0.63955261        0
H        1.00476679      -0.43990310       1.72411120        0
O       -5.54247388      -1.43630461       2.04928841        1
H       -5.15016870      -0.57646695       1.89760553        1
H       -4.84250141      -2.05800667       1.84989702        1
O       -8.21968730      -2.17959069       2.65006361        2
H       -7.86583167      -1.29609932       2.54778439        2
H       -7.46998761      -2.75669733       2.50470150        2
O      -10.85474347      -3.18824899       3.20969581        3
H      -10.58346392      -2.27443053       3.12266092        3
H      -10.05260265      -3.69117891       3.06875809        3
27
Properties=species:S:1:pos:R:3:fragment_id:I:1 config_id=prospective__pros_cyano_cyclic_acetal__cluster_3water__equilibrium molecule_id=pros_cyano_cyclic_acetal smiles=COC1(C#N)CC(O)C1Cl split=prospective chemical_role="cyclic ether alcohol nitrile chloride" category=cluster_3water motif=equilibrium regime=equilibrium conformer_index=0 n_solute_atoms=18 n_waters=3 nextgen_pool_status=OLD_PROSPECTIVE_NOW_DEVELOPMENT pbc="F F F"
C       -2.65598389      -0.00226191       0.22404731        0
O       -1.43982410      -0.54185535       0.73063575        0
C       -0.25573081      -0.44231724      -0.11444553        0
C       -0.40800086      -1.23828723      -1.32897479        0
N       -0.53076444      -1.83244665      -2.31893599        0
C        0.26958068       1.00596289      -0.36595692        0
C        1.70823395       0.48290146      -0.16323860        0
O        2.60045082       1.36774969       0.53860932        0
C        1.09115984      -0.68035026       0.65577328        0
Cl       1.93914931      -2.27344788       0.63422319        0
H       -3.40323963      -0.03446397       1.02128641        0
H       -2.51820104       1.03749348      -0.08471345        0
H       -3.01780967      -0.60011823      -0.61670985        0
H        0.06896770       1.42828302      -1.35592395        0
H       -0.05008189       1.73618985       0.38770047        0
H        2.16503984       0.15773634      -1.10727326        0
H        3.43228741       0.86913509       0.63955261        0
H        1.00476679      -0.43990310       1.72411120        0
O       -6.05004298       0.34961122       1.50963497        1
H       -6.11071358       1.29982539       1.60783852        1
H       -6.29241155       0.18659169       0.59809016        1
O        1.05978317      -3.95909204       1.82881427        2
H        0.48118606      -3.61462632       2.50910875        2
H        0.65809359      -4.78828580       1.56936286        2
O        0.08157816      -4.05698403      -4.36119231        3
H        0.18537768      -5.00853490      -4.35828822        3
H        0.71341350      -3.74467192      -3.71352179        3
27
Properties=species:S:1:pos:R:3:fragment_id:I:1 config_id=prospective__pros_cyano_cyclic_acetal__cluster_3water__orientation molecule_id=pros_cyano_cyclic_acetal smiles=COC1(C#N)CC(O)C1Cl split=prospective chemical_role="cyclic ether alcohol nitrile chloride" category=cluster_3water motif=orientation regime=orientation conformer_index=0 n_solute_atoms=18 n_waters=3 nextgen_pool_status=OLD_PROSPECTIVE_NOW_DEVELOPMENT pbc="F F F"
C       -2.65598389      -0.00226191       0.22404731        0
O       -1.43982410      -0.54185535       0.73063575        0
C       -0.25573081      -0.44231724      -0.11444553        0
C       -0.40800086      -1.23828723      -1.32897479        0
N       -0.53076444      -1.83244665      -2.31893599        0
C        0.26958068       1.00596289      -0.36595692        0
C        1.70823395       0.48290146      -0.16323860        0
O        2.60045082       1.36774969       0.53860932        0
C        1.09115984      -0.68035026       0.65577328        0
Cl       1.93914931      -2.27344788       0.63422319        0
H       -3.40323963      -0.03446397       1.02128641        0
H       -2.51820104       1.03749348      -0.08471345        0
H       -3.01780967      -0.60011823      -0.61670985        0
H        0.06896770       1.42828302      -1.35592395        0
H       -0.05008189       1.73618985       0.38770047        0
H        2.16503984       0.15773634      -1.10727326        0
H        3.43228741       0.86913509       0.63955261        0
H        1.00476679      -0.43990310       1.72411120        0
O       -6.05004298       0.34961122       1.50963497        1
H       -6.31334923      -0.55622338       1.67200908        1
H       -5.48642541       0.30096671       0.73749458        1
O        1.05978317      -3.95909204       1.82881427        2
H        0.72625978      -3.89202805       2.72351892        2
H        1.09430011      -3.05471342       1.51714182        2
O        0.08157816      -4.05698403      -4.36119231        3
H       -0.75401852      -3.80736837      -3.96660132        3
H        0.42471813      -3.24362459      -4.73123721        3
24
Properties=species:S:1:pos:R:3:fragment_id:I:1 config_id=prospective__pros_halogen_oxazinanone__cluster_3water__compressed molecule_id=pros_halogen_oxazinanone smiles=O=C1N(CC#N)C(F)(Cl)CO1 split=prospective chemical_role="cyclic carbamate nitrile mixed halogen" category=cluster_3water motif=compressed regime=compressed conformer_index=0 n_solute_atoms=15 n_waters=3 nextgen_pool_status=OLD_PROSPECTIVE_NOW_DEVELOPMENT pbc="F F F"
O        0.09696843       2.37260867      -0.90555753        0
C       -0.42330379       1.33250295      -0.54248844        0
N        0.21458936       0.14470283      -0.36526438        0
C        1.64753650      -0.04130838      -0.41681878        0
C        2.27202520       0.07208063       0.91301936        0
N        2.75393138       0.15036163       1.96634328        0
C       -0.69381380      -0.86558653       0.03016824        0
F       -0.23409045      -1.51833203       1.11867690        0
Cl      -0.91052238      -1.99290144      -1.31466412        0
C       -1.95415603      -0.08681462       0.34388367        0
O       -1.75126834       1.20781405      -0.24647931        0
H        1.86325101      -1.01750017      -0.86244581        0
H        2.07518342       0.72358592      -1.07461670        0
H       -2.09002240       0.05012124       1.42208005        0
H       -2.86630811      -0.53133475      -0.06583641        0
O       -0.41503151      -2.99249589       2.58477896        1
H       -0.89892397      -2.16925059       2.51884654        1
H        0.17045442      -2.98803847       1.82753515        1
O       -0.59013670      -5.20818373       4.37726598        2
H       -1.14158653      -4.42605834       4.35689941        2
H        0.03317229      -5.08104156       3.66203692        2
O       -0.79312670      -7.44668656       6.10722603        3
H       -1.34859733      -6.66733774       6.08991603        3
H       -0.15379590      -7.30125477       5.40984696        3
24
Properties=species:S:1:pos:R:3:fragment_id:I:1 config_id=prospective__pros_halogen_oxazinanone__cluster_3water__cooperative molecule_id=pros_halogen_oxazinanone smiles=O=C1N(CC#N)C(F)(Cl)CO1 split=prospective chemical_role="cyclic carbamate nitrile mixed halogen" category=cluster_3water motif=cooperative regime=cooperative conformer_index=0 n_solute_atoms=15 n_waters=3 nextgen_pool_status=OLD_PROSPECTIVE_NOW_DEVELOPMENT pbc="F F F"
O        0.09696843       2.37260867      -0.90555753        0
C       -0.42330379       1.33250295      -0.54248844        0
N        0.21458936       0.14470283      -0.36526438        0
C        1.64753650      -0.04130838      -0.41681878        0
C        2.27202520       0.07208063       0.91301936        0
N        2.75393138       0.15036163       1.96634328        0
C       -0.69381380      -0.86558653       0.03016824        0
F       -0.23409045      -1.51833203       1.11867690        0
Cl      -0.91052238      -1.99290144      -1.31466412        0
C       -1.95415603      -0.08681462       0.34388367        0
O       -1.75126834       1.20781405      -0.24647931        0
H        1.86325101      -1.01750017      -0.86244581        0
H        2.07518342       0.72358592      -1.07461670        0
H       -2.09002240       0.05012124       1.42208005        0
H       -2.86630811      -0.53133475      -0.06583641        0
O       -5.53196171       0.22077961       0.76618742        1
H       -4.88783353       0.92513507       0.69397862        1
H       -5.01662205      -0.58325863       0.70153925        1
O       -8.17841749       0.12805853       0.95491058        2
H       -7.62081296       0.90500891       0.91420275        2
H       -7.56793865      -0.60796695       0.91232044        2
O      -11.06221063       0.28523263       1.36874847        3
H      -10.44233353       1.00951580       1.28273614        3
H      -10.52388968      -0.50217529       1.28855392        3
24
Properties=species:S:1:pos:R:3:fragment_id:I:1 config_id=prospective__pros_halogen_oxazinanone__cluster_3water__equilibrium molecule_id=pros_halogen_oxazinanone smiles=O=C1N(CC#N)C(F)(Cl)CO1 split=prospective chemical_role="cyclic carbamate nitrile mixed halogen" category=cluster_3water motif=equilibrium regime=equilibrium conformer_index=0 n_solute_atoms=15 n_waters=3 nextgen_pool_status=OLD_PROSPECTIVE_NOW_DEVELOPMENT pbc="F F F"
O        0.09696843       2.37260867      -0.90555753        0
C       -0.42330379       1.33250295      -0.54248844        0
N        0.21458936       0.14470283      -0.36526438        0
C        1.64753650      -0.04130838      -0.41681878        0
C        2.27202520       0.07208063       0.91301936        0
N        2.75393138       0.15036163       1.96634328        0
C       -0.69381380      -0.86558653       0.03016824        0
F       -0.23409045      -1.51833203       1.11867690        0
Cl      -0.91052238      -1.99290144      -1.31466412        0
C       -1.95415603      -0.08681462       0.34388367        0
O       -1.75126834       1.20781405      -0.24647931        0
H        1.86325101      -1.01750017      -0.86244581        0
H        2.07518342       0.72358592      -1.07461670        0
H       -2.09002240       0.05012124       1.42208005        0
H       -2.86630811      -0.53133475      -0.06583641        0
O        4.24116001       0.23474421       3.10170219        1
H        4.91883687       0.73635104       2.64851733        1
H        4.13301407       0.68146661       3.94133032        1
O        3.51339730       1.73656440      -2.84616138        2
H        3.17968622       2.62921329      -2.75645787        2
H        4.22344460       1.80876769      -3.48401039        2
O       -0.87065867      -3.48303974       2.68918395        3
H       -1.44075149      -3.74873919       3.41073078        3
H       -1.14146376      -2.58757607       2.48659753        3
24
Properties=species:S:1:pos:R:3:fragment_id:I:1 config_id=prospective__pros_halogen_oxazinanone__cluster_3water__orientation molecule_id=pros_halogen_oxazinanone smiles=O=C1N(CC#N)C(F)(Cl)CO1 split=prospective chemical_role="cyclic carbamate nitrile mixed halogen" category=cluster_3water motif=orientation regime=orientation conformer_index=0 n_solute_atoms=15 n_waters=3 nextgen_pool_status=OLD_PROSPECTIVE_NOW_DEVELOPMENT pbc="F F F"
O        0.09696843       2.37260867      -0.90555753        0
C       -0.42330379       1.33250295      -0.54248844        0
N        0.21458936       0.14470283      -0.36526438        0
C        1.64753650      -0.04130838      -0.41681878        0
C        2.27202520       0.07208063       0.91301936        0
N        2.75393138       0.15036163       1.96634328        0
C       -0.69381380      -0.86558653       0.03016824        0
F       -0.23409045      -1.51833203       1.11867690        0
Cl      -0.91052238      -1.99290144      -1.31466412        0
C       -1.95415603      -0.08681462       0.34388367        0
O       -1.75126834       1.20781405      -0.24647931        0
H        1.86325101      -1.01750017      -0.86244581        0
H        2.07518342       0.72358592      -1.07461670        0
H       -2.09002240       0.05012124       1.42208005        0
H       -2.86630811      -0.53133475      -0.06583641        0
O        4.24116001       0.23474421       3.10170219        1
H        3.63085131      -0.12556600       3.74507741        1
H        3.78988275       0.13907964       2.26299547        1
O        3.51339730       1.73656440      -2.84616138        2
H        3.09381924       2.49359447      -3.25492974        2
H        3.10894310       0.97984904      -3.27046139        2
O       -0.87065867      -3.48303974       2.68918395        3
H       -1.41466431      -3.26935269       1.93114203        3
H       -0.76974630      -2.65236143       3.15396571        3
27
Properties=species:S:1:pos:R:3:fragment_id:I:1 config_id=prospective__pros_heteroaryl_amide__cluster_3water__compressed molecule_id=pros_heteroaryl_amide smiles=O=C(N(C)C(F)Cl)c1nocc1 split=prospective chemical_role="heteroaryl amide mixed halogen" category=cluster_3water motif=compressed regime=compressed conformer_index=0 n_solute_atoms=18 n_waters=3 nextgen_pool_status=OLD_PROSPECTIVE_NOW_DEVELOPMENT pbc="F F F"
O       -0.09406592      -2.06393236       0.13860694        0
C       -0.07456713      -0.83185540       0.09577631        0
N       -1.25836680      -0.11256570      -0.02418033        0
C       -1.37236909       1.31456697      -0.27491368        0
C       -2.48346197      -0.85481093       0.09985776        0
F       -3.42244077      -0.08190665       0.70746810        0
Cl      -3.05164004      -1.28240579      -1.52649655        0
C        1.21697731      -0.13127167       0.18389894        0
N        1.35905457       1.15281781       0.55555737        0
O        2.71576861       1.41253724       0.54727285        0
C        3.38857838       0.29087847       0.20035922        0
C        2.49530061      -0.71904214      -0.03089615        0
H       -2.31757081       1.53864951      -0.77899449        0
H       -1.34442132       1.84250132       0.68237121        0
H       -0.56469586       1.66180640      -0.92329719        0
H       -2.36828283      -1.77311088       0.68255786        0
H        4.46477407       0.37639853       0.17234797        0
H        2.71142900      -1.73925472      -0.31228770        0
O       -0.90447563      -4.06290449       0.72429879        1
H       -1.48171642      -3.29934490       0.72301312        1
H       -0.04076495      -3.71116247       0.50862950        1
O       -1.60627607      -6.67769507       0.20111846        2
H       -2.17495748      -5.90774278       0.20371995        2
H       -0.73936496      -6.33649357       0.42084215        2
O       -2.34472049      -9.37541201      -0.00054625        3
H       -2.91864003      -8.60935214       0.00013473        3
H       -1.46223627      -9.01421014       0.08303992        3
27
Properties=species:S:1:pos:R:3:fragment_id:I:1 config_id=prospective__pros_heteroaryl_amide__cluster_3water__cooperative molecule_id=pros_heteroaryl_amide smiles=O=C(N(C)C(F)Cl)c1nocc1 split=prospective chemical_role="heteroaryl amide mixed halogen" category=cluster_3water motif=cooperative regime=cooperative conformer_index=0 n_solute_atoms=18 n_waters=3 nextgen_pool_status=OLD_PROSPECTIVE_NOW_DEVELOPMENT pbc="F F F"
O       -0.09406592      -2.06393236       0.13860694        0
C       -0.07456713      -0.83185540       0.09577631        0
N       -1.25836680      -0.11256570      -0.02418033        0
C       -1.37236909       1.31456697      -0.27491368        0
C       -2.48346197      -0.85481093       0.09985776        0
F       -3.42244077      -0.08190665       0.70746810        0
Cl      -3.05164004      -1.28240579      -1.52649655        0
C        1.21697731      -0.13127167       0.18389894        0
N        1.35905457       1.15281781       0.55555737        0
O        2.71576861       1.41253724       0.54727285        0
C        3.38857838       0.29087847       0.20035922        0
C        2.49530061      -0.71904214      -0.03089615        0
H       -2.31757081       1.53864951      -0.77899449        0
H       -1.34442132       1.84250132       0.68237121        0
H       -0.56469586       1.66180640      -0.92329719        0
H       -2.36828283      -1.77311088       0.68255786        0
H        4.46477407       0.37639853       0.17234797        0
H        2.71142900      -1.73925472      -0.31228770        0
O       -5.93318678      -0.39630838       1.24895323        1
H       -5.45668567       0.42615580       1.13612058        1
H       -5.27274498      -1.07640181       1.11658478        1
O       -8.56997240      -0.70200146       2.11551523        2
H       -8.09959136       0.11442326       1.94692048        2
H       -7.93385463      -1.39014536       1.92046653        2
O      -11.28302969      -1.12308077       2.73893327        3
H      -10.83166108      -0.28712782       2.62196799        3
H      -10.60524004      -1.78378303       2.59643568        3
27
Properties=species:S:1:pos:R:3:fragment_id:I:1 config_id=prospective__pros_heteroaryl_amide__cluster_3water__equilibrium molecule_id=pros_heteroaryl_amide smiles=O=C(N(C)C(F)Cl)c1nocc1 split=prospective chemical_role="heteroaryl amide mixed halogen" category=cluster_3water motif=equilibrium regime=equilibrium conformer_index=0 n_solute_atoms=18 n_waters=3 nextgen_pool_status=OLD_PROSPECTIVE_NOW_DEVELOPMENT pbc="F F F"
O       -0.09406592      -2.06393236       0.13860694        0
C       -0.07456713      -0.83185540       0.09577631        0
N       -1.25836680      -0.11256570      -0.02418033        0
C       -1.37236909       1.31456697      -0.27491368        0
C       -2.48346197      -0.85481093       0.09985776        0
F       -3.42244077      -0.08190665       0.70746810        0
Cl      -3.05164004      -1.28240579      -1.52649655        0
C        1.21697731      -0.13127167       0.18389894        0
N        1.35905457       1.15281781       0.55555737        0
O        2.71576861       1.41253724       0.54727285        0
C        3.38857838       0.29087847       0.20035922        0
C        2.49530061      -0.71904214      -0.03089615        0
H       -2.31757081       1.53864951      -0.77899449        0
H       -1.34442132       1.84250132       0.68237121        0
H       -0.56469586       1.66180640      -0.92329719        0
H       -2.36828283      -1.77311088       0.68255786        0
H        4.46477407       0.37639853       0.17234797        0
H        2.71142900      -1.73925472      -0.31228770        0
O        7.60193046      -0.23719048       0.26186312        1
H        7.03187239       0.52928556       0.20038042        1
H        7.23757309      -0.75000997       0.98331424        1
O        7.28074296       2.18101390       0.82208693        2
H        7.53710600       3.10309800       0.83854122        2
H        6.34330214       2.19596218       0.62917995        2
O       -3.34253482       4.02637011      -0.88338734        3
H       -2.76061040       3.78884926      -1.60531507        3
H       -2.75923325       4.37736659      -0.21048869        3
27
Properties=species:S:1:pos:R:3:fragment_id:I:1 config_id=prospective__pros_heteroaryl_amide__cluster_3water__orientation molecule_id=pros_heteroaryl_amide smiles=O=C(N(C)C(F)Cl)c1nocc1 split=prospective chemical_role="heteroaryl amide mixed halogen" category=cluster_3water motif=orientation regime=orientation conformer_index=0 n_solute_atoms=18 n_waters=3 nextgen_pool_status=OLD_PROSPECTIVE_NOW_DEVELOPMENT pbc="F F F"
O       -0.09406592      -2.06393236       0.13860694        0
C       -0.07456713      -0.83185540       0.09577631        0
N       -1.25836680      -0.11256570      -0.02418033        0
C       -1.37236909       1.31456697      -0.27491368        0
C       -2.48346197      -0.85481093       0.09985776        0
F       -3.42244077      -0.08190665       0.70746810        0
Cl      -3.05164004      -1.28240579      -1.52649655        0
C        1.21697731      -0.13127167       0.18389894        0
N        1.35905457       1.15281781       0.55555737        0
O        2.71576861       1.41253724       0.54727285        0
C        3.38857838       0.29087847       0.20035922        0
C        2.49530061      -0.71904214      -0.03089615        0
H       -2.31757081       1.53864951      -0.77899449        0
H       -1.34442132       1.84250132       0.68237121        0
H       -0.56469586       1.66180640      -0.92329719        0
H       -2.36828283      -1.77311088       0.68255786        0
H        4.46477407       0.37639853       0.17234797        0
H        2.71142900      -1.73925472      -0.31228770        0
O        7.60193046      -0.23719048       0.26186312        1
H        7.45060316      -1.11915973      -0.07793407        1
H        7.31445873      -0.27880039       1.17392697        1
O        7.28074296       2.18101390       0.82208693        2
H        6.41099566       2.25741038       1.21443251        2
H        7.13269129       2.30402910      -0.11555895        2
O       -3.34253482       4.02637011      -0.88338734        3
H       -3.80203542       4.86422195      -0.82775158        3
H       -3.85075499       3.51530223      -1.51327122        3
25
Properties=species:S:1:pos:R:3:fragment_id:I:1 config_id=prospective__pros_isoxazole_thioether__cluster_3water__compressed molecule_id=pros_isoxazole_thioether smiles=CSC1=NOC(C(O)F)=C1Cl split=prospective chemical_role="isoxazole thioether alcohol mixed halogen" category=cluster_3water motif=compressed regime=compressed conformer_index=0 n_solute_atoms=16 n_waters=3 nextgen_pool_status=OLD_PROSPECTIVE_NOW_DEVELOPMENT pbc="F F F"
C       -3.28275780      -1.21645338      -0.60787425        0
S       -2.49996139       0.40996858      -0.56601707        0
C       -0.88630158       0.01838674      -0.01088239        0
N       -0.52096888      -1.22751609       0.30992265        0
O        0.80516923      -1.13690543       0.69692211        0
C        1.21781585       0.15748822       0.60862337        0
C        2.60759504       0.42657488       0.99631261        0
O        3.30520141       0.86945312      -0.14894365        0
F        2.69118196       1.45098725       1.88167702        0
C        0.17531731       0.93370255       0.16438718        0
Cl       0.17074555       2.60782426      -0.10869211        0
H       -3.30355340      -1.66429826       0.38961266        0
H       -4.31411518      -1.10674661      -0.95438340        0
H       -2.75911251      -1.88269675      -1.29919738        0
H        3.11345722      -0.44517153       1.41943222        0
H        3.48028718       1.80540244       0.05053706        0
O        2.19374337      -2.55728969       1.17252982        1
H        1.26904549      -2.53626937       1.41895185        1
H        2.32183078      -1.76345042       0.65325662        1
O        4.02924886      -4.84161456       1.44104383        2
H        3.07619996      -4.84220847       1.53009038        2
H        4.25140418      -3.93140835       1.24507569        2
O        5.91698592      -6.78229829       2.33171446        3
H        5.01351295      -6.66579227       2.62564435        3
H        6.04435298      -6.10093041       1.67160289        3
25
Properties=species:S:1:pos:R:3:fragment_id:I:1 config_id=prospective__pros_isoxazole_thioether__cluster_3water__cooperative molecule_id=pros_isoxazole_thioether smiles=CSC1=NOC(C(O)F)=C1Cl split=prospective chemical_role="isoxazole thioether alcohol mixed halogen" category=cluster_3water motif=cooperative regime=cooperative conformer_index=0 n_solute_atoms=16 n_waters=3 nextgen_pool_status=OLD_PROSPECTIVE_NOW_DEVELOPMENT pbc="F F F"
C       -3.28275780      -1.21645338      -0.60787425        0
S       -2.49996139       0.40996858      -0.56601707        0
C       -0.88630158       0.01838674      -0.01088239        0
N       -0.52096888      -1.22751609       0.30992265        0
O        0.80516923      -1.13690543       0.69692211        0
C        1.21781585       0.15748822       0.60862337        0
C        2.60759504       0.42657488       0.99631261        0
O        3.30520141       0.86945312      -0.14894365        0
F        2.69118196       1.45098725       1.88167702        0
C        0.17531731       0.93370255       0.16438718        0
Cl       0.17074555       2.60782426      -0.10869211        0
H       -3.30355340      -1.66429826       0.38961266        0
H       -4.31411518      -1.10674661      -0.95438340        0
H       -2.75911251      -1.88269675      -1.29919738        0
H        3.11345722      -0.44517153       1.41943222        0
H        3.48028718       1.80540244       0.05053706        0
O       -3.39837867      -3.30183520       2.34743366        1
H       -3.37010303      -2.36205746       2.16785046        1
H       -2.60242968      -3.64743101       1.94337849        1
O       -4.82557684      -4.76015912       4.07105536        2
H       -4.92580307      -3.83039230       3.86680014        2
H       -4.09925072      -5.05017145       3.51917216        2
O       -6.56221488      -6.36389565       5.64663947        3
H       -6.63137883      -5.42591096       5.46878304        3
H       -5.77673676      -6.64038430       5.17461194        3
25
Properties=species:S:1:pos:R:3:fragment_id:I:1 config_id=prospective__pros_isoxazole_thioether__cluster_3water__equilibrium molecule_id=pros_isoxazole_thioether smiles=CSC1=NOC(C(O)F)=C1Cl split=prospective chemical_role="isoxazole thioether alcohol mixed halogen" category=cluster_3water motif=equilibrium regime=equilibrium conformer_index=0 n_solute_atoms=16 n_waters=3 nextgen_pool_status=OLD_PROSPECTIVE_NOW_DEVELOPMENT pbc="F F F"
C       -3.28275780      -1.21645338      -0.60787425        0
S       -2.49996139       0.40996858      -0.56601707        0
C       -0.88630158       0.01838674      -0.01088239        0
N       -0.52096888      -1.22751609       0.30992265        0
O        0.80516923      -1.13690543       0.69692211        0
C        1.21781585       0.15748822       0.60862337        0
C        2.60759504       0.42657488       0.99631261        0
O        3.30520141       0.86945312      -0.14894365        0
F        2.69118196       1.45098725       1.88167702        0
C        0.17531731       0.93370255       0.16438718        0
Cl       0.17074555       2.60782426      -0.10869211        0
H       -3.30355340      -1.66429826       0.38961266        0
H       -4.31411518      -1.10674661      -0.95438340        0
H       -2.75911251      -1.88269675      -1.29919738        0
H        3.11345722      -0.44517153       1.41943222        0
H        3.48028718       1.80540244       0.05053706        0
O       -5.65913610       0.55624560      -2.23810990        1
H       -5.41025849       0.36454325      -3.14229018        1
H       -5.41995526       1.47458751      -2.11292004        1
O        4.37543996       2.35347112       3.19826504        2
H        4.25516024       2.67853433       4.09050858        2
H        4.91665280       3.01783702       2.77172260        2
O        5.66352440       1.01050084      -0.74796636        3
H        6.51838440       0.74801378      -1.08935583        3
H        5.21687150       1.40514286      -1.49695949        3
25
Properties=species:S:1:pos:R:3:fragment_id:I:1 config_id=prospective__pros_isoxazole_thioether__cluster_3water__orientation molecule_id=pros_isoxazole_thioether smiles=CSC1=NOC(C(O)F)=C1Cl split=prospective chemical_role="isoxazole thioether alcohol mixed halogen" category=cluster_3water motif=orientation regime=orientation conformer_index=0 n_solute_atoms=16 n_waters=3 nextgen_pool_status=OLD_PROSPECTIVE_NOW_DEVELOPMENT pbc="F F F"
C       -3.28275780      -1.21645338      -0.60787425        0
S       -2.49996139       0.40996858      -0.56601707        0
C       -0.88630158       0.01838674      -0.01088239        0
N       -0.52096888      -1.22751609       0.30992265        0
O        0.80516923      -1.13690543       0.69692211        0
C        1.21781585       0.15748822       0.60862337        0
C        2.60759504       0.42657488       0.99631261        0
O        3.30520141       0.86945312      -0.14894365        0
F        2.69118196       1.45098725       1.88167702        0
C        0.17531731       0.93370255       0.16438718        0
Cl       0.17074555       2.60782426      -0.10869211        0
H       -3.30355340      -1.66429826       0.38961266        0
H       -4.31411518      -1.10674661      -0.95438340        0
H       -2.75911251      -1.88269675      -1.29919738        0
H        3.11345722      -0.44517153       1.41943222        0
H        3.48028718       1.80540244       0.05053706        0
O       -5.65913610       0.55624560      -2.23810990        1
H       -6.34461578      -0.10913235      -2.17793000        1
H       -5.56021944       0.88054240      -1.34296806        1
O        4.37543996       2.35347112       3.19826504        2
H        4.91084616       3.13268802       3.34790818        2
H        3.97586039       2.49794260       2.34053781        2
O        5.66352440       1.01050084      -0.74796636        3
H        6.10658437       0.35224228      -0.21259231        3
H        5.41511085       0.54345576      -1.54570783        3
27
Properties=species:S:1:pos:R:3:fragment_id:I:1 config_id=prospective__pros_polyfunctional_oxane__cluster_3water__compressed molecule_id=pros_polyfunctional_oxane smiles=N#CC1(O)COC(CCl)C1F split=prospective chemical_role="cyclic ether alcohol nitrile mixed halogen" category=cluster_3water motif=compressed regime=compressed conformer_index=0 n_solute_atoms=18 n_waters=3 nextgen_pool_status=OLD_PROSPECTIVE_NOW_DEVELOPMENT pbc="F F F"
N       -3.21252295       1.70658089      -0.38336507        0
C       -2.37639760       0.90906755      -0.27117256        0
C       -1.30786399      -0.08567677      -0.12234304        0
O       -1.80385321      -1.29843708       0.47719741        0
C       -0.63916449      -0.41011482      -1.45654125        0
O        0.74477495      -0.73462730      -1.18483609        0
C        0.99689717      -0.44906041       0.20483658        0
C        2.40141066       0.10439133       0.42107852        0
Cl       2.66076139       1.67209707      -0.39224942        0
C       -0.13476680       0.44710115       0.67896017        0
F       -0.35129965       0.28550860       2.00988781        0
H       -1.98938283      -1.09068137       1.41376189        0
H       -0.63137307       0.44289773      -2.14465680        0
H       -1.09575806      -1.26666412      -1.96271654        0
H        0.94272026      -1.40850284       0.73588718        0
H        2.60314818       0.25015232       1.48628376        0
H        3.14721713      -0.58233298       0.00995842        0
H        0.04545291       1.50830103       0.48002903        0
O        3.20835660      -1.49651536       2.62511104        1
H        2.60153046      -0.75739682       2.66631358        1
H        3.06227168      -1.87901854       1.75990450        1
O        5.36925836      -2.21987397       4.10269850        2
H        4.70148953      -1.56965440       4.32071490        2
H        5.10470791      -2.55800106       3.24717822        2
O        7.42795163      -3.20946840       5.82227213        3
H        6.74409089      -2.57365527       6.03276678        3
H        7.26808377      -3.43970915       4.90703265        3
27
Properties=species:S:1:pos:R:3:fragment_id:I:1 config_id=prospective__pros_polyfunctional_oxane__cluster_3water__cooperative molecule_id=pros_polyfunctional_oxane smiles=N#CC1(O)COC(CCl)C1F split=prospective chemical_role="cyclic ether alcohol nitrile mixed halogen" category=cluster_3water motif=cooperative regime=cooperative conformer_index=0 n_solute_atoms=18 n_waters=3 nextgen_pool_status=OLD_PROSPECTIVE_NOW_DEVELOPMENT pbc="F F F"
N       -3.21252295       1.70658089      -0.38336507        0
C       -2.37639760       0.90906755      -0.27117256        0
C       -1.30786399      -0.08567677      -0.12234304        0
O       -1.80385321      -1.29843708       0.47719741        0
C       -0.63916449      -0.41011482      -1.45654125        0
O        0.74477495      -0.73462730      -1.18483609        0
C        0.99689717      -0.44906041       0.20483658        0
C        2.40141066       0.10439133       0.42107852        0
Cl       2.66076139       1.67209707      -0.39224942        0
C       -0.13476680       0.44710115       0.67896017        0
F       -0.35129965       0.28550860       2.00988781        0
H       -1.98938283      -1.09068137       1.41376189        0
H       -0.63137307       0.44289773      -2.14465680        0
H       -1.09575806      -1.26666412      -1.96271654        0
H        0.94272026      -1.40850284       0.73588718        0
H        2.60314818       0.25015232       1.48628376        0
H        3.14721713      -0.58233298       0.00995842        0
H        0.04545291       1.50830103       0.48002903        0
O        4.07691849      -2.83866493       1.47397283        1
H        3.19554869      -2.77419362       1.84175345        1
H        4.07796296      -2.22014443       0.74345032        1
O        6.22873250      -4.43739342       2.57665425        2
H        5.37631085      -4.25101947       2.97019448        2
H        6.21129275      -3.97748837       1.73735988        2
O        8.28547086      -6.10661663       3.46927765        3
H        7.40234698      -6.02153477       3.82856184        3
H        8.30640392      -5.49195517       2.73580308        3
27
Properties=species:S:1:pos:R:3:fragment_id:I:1 config_id=prospective__pros_polyfunctional_oxane__cluster_3water__equilibrium molecule_id=pros_polyfunctional_oxane smiles=N#CC1(O)COC(CCl)C1F split=prospective chemical_role="cyclic ether alcohol nitrile mixed halogen" category=cluster_3water motif=equilibrium regime=equilibrium conformer_index=0 n_solute_atoms=18 n_waters=3 nextgen_pool_status=OLD_PROSPECTIVE_NOW_DEVELOPMENT pbc="F F F"
N       -3.21252295       1.70658089      -0.38336507        0
C       -2.37639760       0.90906755      -0.27117256        0
C       -1.30786399      -0.08567677      -0.12234304        0
O       -1.80385321      -1.29843708       0.47719741        0
C       -0.63916449      -0.41011482      -1.45654125        0
O        0.74477495      -0.73462730      -1.18483609        0
C        0.99689717      -0.44906041       0.20483658        0
C        2.40141066       0.10439133       0.42107852        0
Cl       2.66076139       1.67209707      -0.39224942        0
C       -0.13476680       0.44710115       0.67896017        0
F       -0.35129965       0.28550860       2.00988781        0
H       -1.98938283      -1.09068137       1.41376189        0
H       -0.63137307       0.44289773      -2.14465680        0
H       -1.09575806      -1.26666412      -1.96271654        0
H        0.94272026      -1.40850284       0.73588718        0
H        2.60314818       0.25015232       1.48628376        0
H        3.14721713      -0.58233298       0.00995842        0
H        0.04545291       1.50830103       0.48002903        0
O       -1.99512921      -1.01442426      -5.38607724        1
H       -1.74907502      -1.22269410      -4.48479324        1
H       -1.29785620      -1.39591729      -5.91946759        1
O       -5.46676978       2.44546763      -0.52264704        2
H       -6.16944757       2.72004160      -1.11178616        2
H       -5.50463296       1.48907616      -0.53330468        2
O       -0.94260357       0.34572764       4.64449533        3
H       -0.09818736       0.68261999       4.34500134        3
H       -0.72392362      -0.23971006       5.36952885        3
27
Properties=species:S:1:pos:R:3:fragment_id:I:1 config_id=prospective__pros_polyfunctional_oxane__cluster_3water__orientation molecule_id=pros_polyfunctional_oxane smiles=N#CC1(O)COC(CCl)C1F split=prospective chemical_role="cyclic ether alcohol nitrile mixed halogen" category=cluster_3water motif=orientation regime=orientation conformer_index=0 n_solute_atoms=18 n_waters=3 nextgen_pool_status=OLD_PROSPECTIVE_NOW_DEVELOPMENT pbc="F F F"
N       -3.21252295       1.70658089      -0.38336507        0
C       -2.37639760       0.90906755      -0.27117256        0
C       -1.30786399      -0.08567677      -0.12234304        0
O       -1.80385321      -1.29843708       0.47719741        0
C       -0.63916449      -0.41011482      -1.45654125        0
O        0.74477495      -0.73462730      -1.18483609        0
C        0.99689717      -0.44906041       0.20483658        0
C        2.40141066       0.10439133       0.42107852        0
Cl       2.66076139       1.67209707      -0.39224942        0
C       -0.13476680       0.44710115       0.67896017        0
F       -0.35129965       0.28550860       2.00988781        0
H       -1.98938283      -1.09068137       1.41376189        0
H       -0.63137307       0.44289773      -2.14465680        0
H       -1.09575806      -1.26666412      -1.96271654        0
H        0.94272026      -1.40850284       0.73588718        0
H        2.60314818       0.25015232       1.48628376        0
H        3.14721713      -0.58233298       0.00995842        0
H        0.04545291       1.50830103       0.48002903        0
O       -1.99512921      -1.01442426      -5.38607724        1
H       -2.66849451      -1.68054235      -5.24788282        1
H       -1.94664236      -0.91585212      -6.33695283        1
O       -5.46676978       2.44546763      -0.52264704        2
H       -4.99164059       1.72838215      -0.94249523        2
H       -4.98309858       2.61267595       0.28626296        2
O       -0.94260357       0.34572764       4.64449533        3
H       -1.38843014       0.87862875       5.30289256        3
H       -1.38572044      -0.50191684       4.68161829        3
30
Properties=species:S:1:pos:R:3:fragment_id:I:1 config_id=prospective__pros_sulfonyl_piperidinol__cluster_3water__compressed molecule_id=pros_sulfonyl_piperidinol smiles=CS(=O)(=O)N1CC(F)C(O)C1 split=prospective chemical_role="sulfonamide cyclic alcohol fluoride" category=cluster_3water motif=compressed regime=compressed conformer_index=0 n_solute_atoms=21 n_waters=3 nextgen_pool_status=OLD_PROSPECTIVE_NOW_DEVELOPMENT pbc="F F F"
C        2.83289071       0.33093212       0.24918190        0
S        1.26934887       1.18655646       0.26223666        0
O        1.41247418       2.41485279      -0.48612286        0
O        0.72293269       1.18888696       1.60420872        0
N        0.27509504       0.14941367      -0.63803698        0
C        0.03566807      -1.22042285      -0.05758706        0
C       -1.47185622      -1.45033373      -0.09970460        0
F       -1.80581718      -2.02530384      -1.28829918        0
C       -2.04689322      -0.04941711      -0.04160861        0
O       -2.06736389       0.44652247       1.29934007        0
C       -1.08195402       0.72568406      -0.93834555        0
H        2.73063839      -0.62478347       0.76454485        0
H        3.14796662       0.19022734      -0.78633015        0
H        3.55831272       0.95589567       0.77483809        0
H        0.38894034      -1.27609730       0.97664886        0
H        0.57283941      -1.96094693      -0.65721794        0
H       -1.80963051      -2.10558922       0.70789620        0
H       -3.06736606      -0.00675422      -0.43276768        0
H       -1.17578289       0.78232982       1.53770647        0
H       -1.29023822       0.54610143      -1.99915208        0
H       -1.13020481       1.80224587      -0.75142912        0
O       -2.89079874       1.82759419      -2.27001599        1
H       -2.13382756       2.24128456      -1.85518258        1
H       -2.80059553       0.89782302      -2.06116011        1
O       -4.88957452       2.60393627      -3.89946575        2
H       -4.23654127       3.15589027      -3.46920283        2
H       -4.67295068       1.71419981      -3.62076343        2
O       -6.89235755       3.52889594      -5.76816256        3
H       -6.24432926       4.05263532      -5.29700630        3
H       -6.72866926       2.63027565      -5.48194663        3
30
Properties=species:S:1:pos:R:3:fragment_id:I:1 config_id=prospective__pros_sulfonyl_piperidinol__cluster_3water__cooperative molecule_id=pros_sulfonyl_piperidinol smiles=CS(=O)(=O)N1CC(F)C(O)C1 split=prospective chemical_role="sulfonamide cyclic alcohol fluoride" category=cluster_3water motif=cooperative regime=cooperative conformer_index=0 n_solute_atoms=21 n_waters=3 nextgen_pool_status=OLD_PROSPECTIVE_NOW_DEVELOPMENT pbc="F F F"
C        2.83289071       0.33093212       0.24918190        0
S        1.26934887       1.18655646       0.26223666        0
O        1.41247418       2.41485279      -0.48612286        0
O        0.72293269       1.18888696       1.60420872        0
N        0.27509504       0.14941367      -0.63803698        0
C        0.03566807      -1.22042285      -0.05758706        0
C       -1.47185622      -1.45033373      -0.09970460        0
F       -1.80581718      -2.02530384      -1.28829918        0
C       -2.04689322      -0.04941711      -0.04160861        0
O       -2.06736389       0.44652247       1.29934007        0
C       -1.08195402       0.72568406      -0.93834555        0
H        2.73063839      -0.62478347       0.76454485        0
H        3.14796662       0.19022734      -0.78633015        0
H        3.55831272       0.95589567       0.77483809        0
H        0.38894034      -1.27609730       0.97664886        0
H        0.57283941      -1.96094693      -0.65721794        0
H       -1.80963051      -2.10558922       0.70789620        0
H       -3.06736606      -0.00675422      -0.43276768        0
H       -1.17578289       0.78232982       1.53770647        0
H       -1.29023822       0.54610143      -1.99915208        0
H       -1.13020481       1.80224587      -0.75142912        0
O       -2.86637196      -4.16271915      -2.19234738        1
H       -3.25693472      -3.29019244      -2.14346281        1
H       -1.98877197      -4.05368334      -1.82606704        1
O       -3.82148602      -6.46136937      -3.12396271        2
H       -4.26560376      -5.61422416      -3.08740781        2
H       -2.95628111      -6.29509415      -2.74979048        2
O       -5.20987930      -8.76984430      -4.12624698        3
H       -5.53482267      -7.87157976      -4.06489175        3
H       -4.31891883      -8.72699488      -3.77899318        3
30
Properties=species:S:1:pos:R:3:fragment_id:I:1 config_id=prospective__pros_sulfonyl_piperidinol__cluster_3water__equilibrium molecule_id=pros_sulfonyl_piperidinol smiles=CS(=O)(=O)N1CC(F)C(O)C1 split=prospective chemical_role="sulfonamide cyclic alcohol fluoride" category=cluster_3water motif=equilibrium regime=equilibrium conformer_index=0 n_solute_atoms=21 n_waters=3 nextgen_pool_status=OLD_PROSPECTIVE_NOW_DEVELOPMENT pbc="F F F"
C        2.83289071       0.33093212       0.24918190        0
S        1.26934887       1.18655646       0.26223666        0
O        1.41247418       2.41485279      -0.48612286        0
O        0.72293269       1.18888696       1.60420872        0
N        0.27509504       0.14941367      -0.63803698        0
C        0.03566807      -1.22042285      -0.05758706        0
C       -1.47185622      -1.45033373      -0.09970460        0
F       -1.80581718      -2.02530384      -1.28829918        0
C       -2.04689322      -0.04941711      -0.04160861        0
O       -2.06736389       0.44652247       1.29934007        0
C       -1.08195402       0.72568406      -0.93834555        0
H        2.73063839      -0.62478347       0.76454485        0
H        3.14796662       0.19022734      -0.78633015        0
H        3.55831272       0.95589567       0.77483809        0
H        0.38894034      -1.27609730       0.97664886        0
H        0.57283941      -1.96094693      -0.65721794        0
H       -1.80963051      -2.10558922       0.70789620        0
H       -3.06736606      -0.00675422      -0.43276768        0
H       -1.17578289       0.78232982       1.53770647        0
H       -1.29023822       0.54610143      -1.99915208        0
H       -1.13020481       1.80224587      -0.75142912        0
O       -3.99967376       1.29576085       2.94193489        1
H       -3.80369385       2.22479852       3.06323089        1
H       -4.94827799       1.23397181       3.05402402        1
O        6.76481965       1.41773301       0.51420751        2
H        5.85077362       1.28888803       0.26092771        2
H        7.22043421       1.58872886      -0.31005436        2
O        3.48834368       3.40331492       0.85664035        3
H        4.33211247       2.95334505       0.81405897        3
H        3.16353719       3.38995964      -0.04366750        3
30
Properties=species:S:1:pos:R:3:fragment_id:I:1 config_id=prospective__pros_sulfonyl_piperidinol__cluster_3water__orientation molecule_id=pros_sulfonyl_piperidinol smiles=CS(=O)(=O)N1CC(F)C(O)C1 split=prospective chemical_role="sulfonamide cyclic alcohol fluoride" category=cluster_3water motif=orientation regime=orientation conformer_index=0 n_solute_atoms=21 n_waters=3 nextgen_pool_status=OLD_PROSPECTIVE_NOW_DEVELOPMENT pbc="F F F"
C        2.83289071       0.33093212       0.24918190        0
S        1.26934887       1.18655646       0.26223666        0
O        1.41247418       2.41485279      -0.48612286        0
O        0.72293269       1.18888696       1.60420872        0
N        0.27509504       0.14941367      -0.63803698        0
C        0.03566807      -1.22042285      -0.05758706        0
C       -1.47185622      -1.45033373      -0.09970460        0
F       -1.80581718      -2.02530384      -1.28829918        0
C       -2.04689322      -0.04941711      -0.04160861        0
O       -2.06736389       0.44652247       1.29934007        0
C       -1.08195402       0.72568406      -0.93834555        0
H        2.73063839      -0.62478347       0.76454485        0
H        3.14796662       0.19022734      -0.78633015        0
H        3.55831272       0.95589567       0.77483809        0
H        0.38894034      -1.27609730       0.97664886        0
H        0.57283941      -1.96094693      -0.65721794        0
H       -1.80963051      -2.10558922       0.70789620        0
H       -3.06736606      -0.00675422      -0.43276768        0
H       -1.17578289       0.78232982       1.53770647        0
H       -1.29023822       0.54610143      -1.99915208        0
H       -1.13020481       1.80224587      -0.75142912        0
O       -3.99967376       1.29576085       2.94193489        1
H       -3.16203322       1.71826957       2.75199664        1
H       -3.76769854       0.39664998       3.17435471        1
O        6.76481965       1.41773301       0.51420751        2
H        6.88412450       1.54529212       1.45533814        2
H        6.77097444       2.30266771       0.14939999        2
O        3.48834368       3.40331492       0.85664035        3
H        3.28067245       3.72048958       1.73556283        3
H        2.93353839       3.92434650       0.27616724        3
20
Properties=species:S:1:pos:R:3:fragment_id:I:1 config_id=prospective__prospective_diverse_01__cluster_3water__compressed molecule_id=prospective_diverse_01 smiles=NCC(=O)N split=prospective chemical_role=nan category=cluster_3water motif=compressed regime=compressed conformer_index=0 n_solute_atoms=11 n_waters=3 nextgen_pool_status=OLD_PROSPECTIVE_NOW_DEVELOPMENT pbc="F F F"
N       -1.01935812       0.99614502       0.08786156        0
C       -0.77266571      -0.46118841       0.14245376        0
C        0.69639084      -0.78343811      -0.14435695        0
O        1.08690947      -1.87926205      -0.53026822        0
N        1.56472812       0.23999885       0.10511018        0
H       -2.00730605       1.15685685       0.28614860        0
H       -0.88241045       1.29988146      -0.87795359        0
H       -1.39721767      -0.96827069      -0.59911900        0
H       -1.01585707      -0.83659750       1.14083420        0
H        1.19210486       1.12655508       0.42773841        0
H        2.55468177       0.10931950      -0.03844896        0
O        4.43746289       1.48242689       0.23374249        1
H        4.20039357       0.57127195       0.06103854        1
H        3.59994942       1.92883589       0.35832989        1
O        7.13705941       1.70831626       0.23050043        2
H        6.61633526       0.90546072       0.25288743        2
H        6.49010050       2.41346565       0.20951575        2
O        9.90867602       2.13283194      -0.23262721        3
H        9.45035921       2.11959542       0.60761224        3
H        9.22421893       1.97103508      -0.88191306        3
20
Properties=species:S:1:pos:R:3:fragment_id:I:1 config_id=prospective__prospective_diverse_01__cluster_3water__cooperative molecule_id=prospective_diverse_01 smiles=NCC(=O)N split=prospective chemical_role=nan category=cluster_3water motif=cooperative regime=cooperative conformer_index=0 n_solute_atoms=11 n_waters=3 nextgen_pool_status=OLD_PROSPECTIVE_NOW_DEVELOPMENT pbc="F F F"
N       -1.01935812       0.99614502       0.08786156        0
C       -0.77266571      -0.46118841       0.14245376        0
C        0.69639084      -0.78343811      -0.14435695        0
O        1.08690947      -1.87926205      -0.53026822        0
N        1.56472812       0.23999885       0.10511018        0
H       -2.00730605       1.15685685       0.28614860        0
H       -0.88241045       1.29988146      -0.87795359        0
H       -1.39721767      -0.96827069      -0.59911900        0
H       -1.01585707      -0.83659750       1.14083420        0
H        1.19210486       1.12655508       0.42773841        0
H        2.55468177       0.10931950      -0.03844896        0
O       -2.69782466       3.84056017       1.41703733        1
H       -1.81683192       3.80104012       1.04485217        1
H       -3.02637760       2.94388752       1.35174604        1
O       -4.65193504       5.76188285       2.16298653        2
H       -3.73676442       5.91727944       1.92943465        2
H       -4.76089649       4.81380434       2.08878145        2
O       -6.33241995       7.87090368       3.21935737        3
H       -5.44125253       7.94720081       2.87843035        3
H       -6.54368290       6.94132149       3.13288916        3
20
Properties=species:S:1:pos:R:3:fragment_id:I:1 config_id=prospective__prospective_diverse_01__cluster_3water__equilibrium molecule_id=prospective_diverse_01 smiles=NCC(=O)N split=prospective chemical_role=nan category=cluster_3water motif=equilibrium regime=equilibrium conformer_index=0 n_solute_atoms=11 n_waters=3 nextgen_pool_status=OLD_PROSPECTIVE_NOW_DEVELOPMENT pbc="F F F"
N       -1.01935812       0.99614502       0.08786156        0
C       -0.77266571      -0.46118841       0.14245376        0
C        0.69639084      -0.78343811      -0.14435695        0
O        1.08690947      -1.87926205      -0.53026822        0
N        1.56472812       0.23999885       0.10511018        0
H       -2.00730605       1.15685685       0.28614860        0
H       -0.88241045       1.29988146      -0.87795359        0
H       -1.39721767      -0.96827069      -0.59911900        0
H       -1.01585707      -0.83659750       1.14083420        0
H        1.19210486       1.12655508       0.42773841        0
H        2.55468177       0.10931950      -0.03844896        0
O       -3.64419244       3.80671233      -1.11015907        1
H       -3.54208006       2.86645701      -0.96276558        1
H       -4.46662689       4.03003039      -0.67431224        1
O        4.14160360       0.51265671       1.62686148        2
H        3.96230982       1.17818890       0.96266837        2
H        5.06270218       0.64148522       1.85316318        2
O        2.26428569      -3.53335569      -1.03188325        3
H        2.87772199      -2.81340667      -1.17885661        3
H        2.81919839      -4.27768096      -0.79889480        3
20
Properties=species:S:1:pos:R:3:fragment_id:I:1 config_id=prospective__prospective_diverse_01__cluster_3water__orientation molecule_id=prospective_diverse_01 smiles=NCC(=O)N split=prospective chemical_role=nan category=cluster_3water motif=orientation regime=orientation conformer_index=0 n_solute_atoms=11 n_waters=3 nextgen_pool_status=OLD_PROSPECTIVE_NOW_DEVELOPMENT pbc="F F F"
N       -1.01935812       0.99614502       0.08786156        0
C       -0.77266571      -0.46118841       0.14245376        0
C        0.69639084      -0.78343811      -0.14435695        0
O        1.08690947      -1.87926205      -0.53026822        0
N        1.56472812       0.23999885       0.10511018        0
H       -2.00730605       1.15685685       0.28614860        0
H       -0.88241045       1.29988146      -0.87795359        0
H       -1.39721767      -0.96827069      -0.59911900        0
H       -1.01585707      -0.83659750       1.14083420        0
H        1.19210486       1.12655508       0.42773841        0
H        2.55468177       0.10931950      -0.03844896        0
O       -3.64419244       3.80671233      -1.11015907        1
H       -3.69038864       4.24640961      -1.95913731        1
H       -4.55245143       3.58480501      -0.90508689        1
O        4.14160360       0.51265671       1.62686148        2
H        4.62104556       1.22293962       1.20040465        2
H        4.24837021      -0.23551764       1.03943670        2
O        2.26428569      -3.53335569      -1.03188325        3
H        2.31924128      -4.33931529      -1.54534292        3
H        3.01529631      -3.01407234      -1.31921527        3
18
Properties=species:S:1:pos:R:3:fragment_id:I:1 config_id=prospective__prospective_diverse_02__cluster_3water__compressed molecule_id=prospective_diverse_02 smiles=OCCI split=prospective chemical_role=nan category=cluster_3water motif=compressed regime=compressed conformer_index=0 n_solute_atoms=9 n_waters=3 nextgen_pool_status=OLD_PROSPECTIVE_NOW_DEVELOPMENT pbc="F F F"
O       -1.45306628       0.42999847      -0.54234022        0
C       -0.58658591      -0.43805968       0.18178416        0
C        0.87449460      -0.16453248      -0.16025607        0
I        1.50790534       1.72089778       0.65929860        0
H       -1.22385999       1.34217714      -0.28754044        0
H       -0.84412617      -1.46225099      -0.10596244        0
H       -0.79235240      -0.32889585       1.25172438        0
H        1.50600082      -0.95928090       0.24984576        0
H        1.01159000      -0.14005350      -1.24655373        0
O       -3.53122660       0.41603005      -1.00165423        1
H       -2.96413076       1.17680903      -0.87575943        1
H       -2.95419503      -0.33705864      -0.87467454        1
O       -6.13397705       1.54649150      -1.80403116        2
H       -5.32669243       2.01975699      -1.60267784        2
H       -5.90704489       0.62403112      -1.68655573        2
O       -8.63236627       2.28367381      -2.50845142        3
H       -7.88312962       2.85123452      -2.32747870        3
H       -8.29670915       1.39600105      -2.38353859        3
18
Properties=species:S:1:pos:R:3:fragment_id:I:1 config_id=prospective__prospective_diverse_02__cluster_3water__cooperative molecule_id=prospective_diverse_02 smiles=OCCI split=prospective chemical_role=nan category=cluster_3water motif=cooperative regime=cooperative conformer_index=0 n_solute_atoms=9 n_waters=3 nextgen_pool_status=OLD_PROSPECTIVE_NOW_DEVELOPMENT pbc="F F F"
O       -1.45306628       0.42999847      -0.54234022        0
C       -0.58658591      -0.43805968       0.18178416        0
C        0.87449460      -0.16453248      -0.16025607        0
I        1.50790534       1.72089778       0.65929860        0
H       -1.22385999       1.34217714      -0.28754044        0
H       -0.84412617      -1.46225099      -0.10596244        0
H       -0.79235240      -0.32889585       1.25172438        0
H        1.50600082      -0.95928090       0.24984576        0
H        1.01159000      -0.14005350      -1.24655373        0
O        3.53857123       3.29411022       1.16215658        1
H        3.53899626       2.47934289       0.65977639        1
H        2.62909776       3.40461284       1.43942724        1
O        5.50782820       5.07777932       1.30697482        2
H        5.58163620       4.13347786       1.16884814        2
H        4.56683229       5.23661890       1.38132890        2
O        7.72000804       6.81150852       1.68509527        3
H        7.72574510       5.92405328       1.32645600        3
H        6.80023268       6.98261382       1.88750105        3
18
Properties=species:S:1:pos:R:3:fragment_id:I:1 config_id=prospective__prospective_diverse_02__cluster_3water__equilibrium molecule_id=prospective_diverse_02 smiles=OCCI split=prospective chemical_role=nan category=cluster_3water motif=equilibrium regime=equilibrium conformer_index=0 n_solute_atoms=9 n_waters=3 nextgen_pool_status=OLD_PROSPECTIVE_NOW_DEVELOPMENT pbc="F F F"
O       -1.45306628       0.42999847      -0.54234022        0
C       -0.58658591      -0.43805968       0.18178416        0
C        0.87449460      -0.16453248      -0.16025607        0
I        1.50790534       1.72089778       0.65929860        0
H       -1.22385999       1.34217714      -0.28754044        0
H       -0.84412617      -1.46225099      -0.10596244        0
H       -0.79235240      -0.32889585       1.25172438        0
H        1.50600082      -0.95928090       0.24984576        0
H        1.01159000      -0.14005350      -1.24655373        0
O        2.86282633       3.47381979       1.21930752        1
H        2.17944519       4.04328278       1.57276750        1
H        3.48574196       3.37135733       1.93882778        1
O       -2.51830064       0.53443974      -2.49171137        2
H       -1.71133874       0.81425154      -2.92385680        2
H       -3.15093984       0.43850802      -3.20360785        2
O       -4.11877467       1.33399329      -0.87090287        3
H       -3.70329360       0.97397645      -0.08732441        3
H       -4.16626031       0.59559431      -1.47814574        3
18
Properties=species:S:1:pos:R:3:fragment_id:I:1 config_id=prospective__prospective_diverse_02__cluster_3water__orientation molecule_id=prospective_diverse_02 smiles=OCCI split=prospective chemical_role=nan category=cluster_3water motif=orientation regime=orientation conformer_index=0 n_solute_atoms=9 n_waters=3 nextgen_pool_status=OLD_PROSPECTIVE_NOW_DEVELOPMENT pbc="F F F"
O       -1.45306628       0.42999847      -0.54234022        0
C       -0.58658591      -0.43805968       0.18178416        0
C        0.87449460      -0.16453248      -0.16025607        0
I        1.50790534       1.72089778       0.65929860        0
H       -1.22385999       1.34217714      -0.28754044        0
H       -0.84412617      -1.46225099      -0.10596244        0
H       -0.79235240      -0.32889585       1.25172438        0
H        1.50600082      -0.95928090       0.24984576        0
H        1.01159000      -0.14005350      -1.24655373        0
O        2.86282633       3.47381979       1.21930752        1
H        2.45117117       3.81323123       0.42459264        1
H        3.52034708       2.85419439       0.90313878        1
O       -2.51830064       0.53443974      -2.49171137        2
H       -3.44347184       0.29954982      -2.56324337        2
H       -2.50386034       1.26850900      -1.87757325        2
O       -4.11877467       1.33399329      -0.87090287        3
H       -4.18510254       2.16333561      -0.39759138        3
H       -3.73627634       1.56992633      -1.71604337        3
23
Properties=species:S:1:pos:R:3:fragment_id:I:1 config_id=prospective__prospective_diverse_03__cluster_3water__compressed molecule_id=prospective_diverse_03 smiles=O1CCOCC1 split=prospective chemical_role=nan category=cluster_3water motif=compressed regime=compressed conformer_index=0 n_solute_atoms=14 n_waters=3 nextgen_pool_status=OLD_PROSPECTIVE_NOW_DEVELOPMENT pbc="F F F"
O        0.78583174       1.07704767       0.44056782        0
C       -0.41933223       1.31675135      -0.30141180        0
C       -1.39217026       0.14974482      -0.13655817        0
O       -0.78583020      -1.07704960      -0.56984882        0
C        0.41933304      -1.31675136       0.17213470        0
C        1.39217104      -0.14974543       0.00727230        0
H       -0.86747494       2.24288828       0.07038446        0
H       -0.15568256       1.46051770      -1.35562206        0
H       -2.29113666       0.31415554      -0.73790771        0
H       -1.69426549       0.03710232       0.91110096        0
H        0.86747600      -2.24289142      -0.19965558        0
H        0.15568108      -1.46051151       1.22634730        0
H        2.29114442      -0.31415514       0.60861325        0
H        1.69425502      -0.03710322      -1.04039088        0
O        4.27588038      -0.43003018      -0.66026476        1
H        3.63627558       0.15866963      -1.06097673        1
H        3.77899139      -0.90826744       0.00352911        1
O        7.17204284      -0.67588370      -0.89123381        2
H        6.52626911      -0.67099436      -1.59776352        2
H        6.65392029      -0.58197057      -0.09188333        2
O        9.95123752      -0.98889743      -1.06319547        3
H        9.28557550      -1.32467457      -1.66351175        3
H        9.45469171      -0.52222373      -0.39096801        3
23
Properties=species:S:1:pos:R:3:fragment_id:I:1 config_id=prospective__prospective_diverse_03__cluster_3water__cooperative molecule_id=prospective_diverse_03 smiles=O1CCOCC1 split=prospective chemical_role=nan category=cluster_3water motif=cooperative regime=cooperative conformer_index=0 n_solute_atoms=14 n_waters=3 nextgen_pool_status=OLD_PROSPECTIVE_NOW_DEVELOPMENT pbc="F F F"
O        0.78583174       1.07704767       0.44056782        0
C       -0.41933223       1.31675135      -0.30141180        0
C       -1.39217026       0.14974482      -0.13655817        0
O       -0.78583020      -1.07704960      -0.56984882        0
C        0.41933304      -1.31675136       0.17213470        0
C        1.39217104      -0.14974543       0.00727230        0
H       -0.86747494       2.24288828       0.07038446        0
H       -0.15568256       1.46051770      -1.35562206        0
H       -2.29113666       0.31415554      -0.73790771        0
H       -1.69426549       0.03710232       0.91110096        0
H        0.86747600      -2.24289142      -0.19965558        0
H        0.15568108      -1.46051151       1.22634730        0
H        2.29114442      -0.31415514       0.60861325        0
H        1.69425502      -0.03710322      -1.04039088        0
O       -2.39627829      -2.76921049      -1.57715422        1
H       -2.52888721      -1.82763322      -1.46724994        1
H       -1.52187979      -2.93136040      -1.22308288        1
O       -4.09432224      -4.67679589      -2.93730259        2
H       -4.24953092      -3.74091885      -2.80972409        2
H       -3.25146193      -4.84016395      -2.51406599        2
O       -5.58884803      -6.77182323      -4.29945238        3
H       -5.83276292      -5.85227902      -4.19373670        3
H       -4.74349360      -6.84826907      -3.85700038        3
23
Properties=species:S:1:pos:R:3:fragment_id:I:1 config_id=prospective__prospective_diverse_03__cluster_3water__equilibrium molecule_id=prospective_diverse_03 smiles=O1CCOCC1 split=prospective chemical_role=nan category=cluster_3water motif=equilibrium regime=equilibrium conformer_index=0 n_solute_atoms=14 n_waters=3 nextgen_pool_status=OLD_PROSPECTIVE_NOW_DEVELOPMENT pbc="F F F"
O        0.78583174       1.07704767       0.44056782        0
C       -0.41933223       1.31675135      -0.30141180        0
C       -1.39217026       0.14974482      -0.13655817        0
O       -0.78583020      -1.07704960      -0.56984882        0
C        0.41933304      -1.31675136       0.17213470        0
C        1.39217104      -0.14974543       0.00727230        0
H       -0.86747494       2.24288828       0.07038446        0
H       -0.15568256       1.46051770      -1.35562206        0
H       -2.29113666       0.31415554      -0.73790771        0
H       -1.69426549       0.03710232       0.91110096        0
H        0.86747600      -2.24289142      -0.19965558        0
H        0.15568108      -1.46051151       1.22634730        0
H        2.29114442      -0.31415514       0.60861325        0
H        1.69425502      -0.03710322      -1.04039088        0
O        1.26005375      -5.21140911       0.67807179        1
H        0.61930793      -4.53890618       0.44695182        1
H        2.06494603      -4.72491571       0.85612920        1
O       -4.09659072      -2.42289627      -1.15717109        2
H       -4.49748187      -2.82282939      -1.92890396        2
H       -4.08146335      -1.48603776      -1.35287277        2
O        5.00157094      -1.05655274      -1.03337545        3
H        4.34398384      -1.13991593      -0.34282376        3
H        4.50248643      -1.11356693      -1.84817351        3
23
Properties=species:S:1:pos:R:3:fragment_id:I:1 config_id=prospective__prospective_diverse_03__cluster_3water__orientation molecule_id=prospective_diverse_03 smiles=O1CCOCC1 split=prospective chemical_role=nan category=cluster_3water motif=orientation regime=orientation conformer_index=0 n_solute_atoms=14 n_waters=3 nextgen_pool_status=OLD_PROSPECTIVE_NOW_DEVELOPMENT pbc="F F F"
O        0.78583174       1.07704767       0.44056782        0
C       -0.41933223       1.31675135      -0.30141180        0
C       -1.39217026       0.14974482      -0.13655817        0
O       -0.78583020      -1.07704960      -0.56984882        0
C        0.41933304      -1.31675136       0.17213470        0
C        1.39217104      -0.14974543       0.00727230        0
H       -0.86747494       2.24288828       0.07038446        0
H       -0.15568256       1.46051770      -1.35562206        0
H       -2.29113666       0.31415554      -0.73790771        0
H       -1.69426549       0.03710232       0.91110096        0
H        0.86747600      -2.24289142      -0.19965558        0
H        0.15568108      -1.46051151       1.22634730        0
H        2.29114442      -0.31415514       0.60861325        0
H        1.69425502      -0.03710322      -1.04039088        0
O        1.26005375      -5.21140911       0.67807179        1
H        1.66795303      -5.87082929       0.11680977        1
H        0.38597616      -5.08854700       0.30776771        1
O       -4.09659072      -2.42289627      -1.15717109        2
H       -3.46231132      -2.13348196      -0.50130461        2
H       -4.94874899      -2.20585493      -0.77908222        2
O        5.00157094      -1.05655274      -1.03337545        3
H        4.95474340      -1.66163283      -1.77358968        3
H        4.75189661      -1.58496276      -0.27530063        3
17
Properties=species:S:1:pos:R:3:fragment_id:I:1 config_id=prospective__prospective_diverse_04__cluster_3water__compressed molecule_id=prospective_diverse_04 smiles=c1nccs1 split=prospective chemical_role=nan category=cluster_3water motif=compressed regime=compressed conformer_index=0 n_solute_atoms=8 n_waters=3 nextgen_pool_status=OLD_PROSPECTIVE_NOW_DEVELOPMENT pbc="F F F"
C        1.37214998      -0.09055001      -0.28230593        0
N        0.70441497       1.02370028      -0.07672554        0
C       -0.64841489       0.74505612      -0.05788454        0
C       -0.98849381      -0.57730164      -0.24951018        0
S        0.43204978      -1.51502684      -0.46220649        0
H        2.45268217      -0.11536374      -0.33614612        0
H       -1.35238758       1.55289076       0.10132035        0
H       -1.97200062      -1.02340493      -0.27399795        0
O       -3.43907473      -2.52734974      -0.39778337        1
H       -3.45194042      -1.57035708      -0.38257302        1
H       -2.51034245      -2.75554219      -0.35757891        1
O       -5.40720814      -4.51804487      -1.00584700        2
H       -5.53070112      -3.57062911      -0.94766878        2
H       -4.47866124      -4.65117797      -0.81530021        2
O       -7.61961998      -6.12212962      -1.12678541        3
H       -7.58964263      -5.16551758      -1.11173211        3
H       -6.70186969      -6.39160222      -1.09003250        3
17
Properties=species:S:1:pos:R:3:fragment_id:I:1 config_id=prospective__prospective_diverse_04__cluster_3water__cooperative molecule_id=prospective_diverse_04 smiles=c1nccs1 split=prospective chemical_role=nan category=cluster_3water motif=cooperative regime=cooperative conformer_index=0 n_solute_atoms=8 n_waters=3 nextgen_pool_status=OLD_PROSPECTIVE_NOW_DEVELOPMENT pbc="F F F"
C        1.37214998      -0.09055001      -0.28230593        0
N        0.70441497       1.02370028      -0.07672554        0
C       -0.64841489       0.74505612      -0.05788454        0
C       -0.98849381      -0.57730164      -0.24951018        0
S        0.43204978      -1.51502684      -0.46220649        0
H        2.45268217      -0.11536374      -0.33614612        0
H       -1.35238758       1.55289076       0.10132035        0
H       -1.97200062      -1.02340493      -0.27399795        0
O       -3.89781897      -1.49638804      -1.97275649        1
H       -3.60991925      -0.61421827      -1.73797557        1
H       -3.21283599      -2.07121394      -1.63128125        1
O       -6.31922877      -1.84219887      -3.32770748        2
H       -5.90548804      -1.01899583      -3.06811704        2
H       -5.71826098      -2.52048750      -3.01949635        2
O       -8.71010480      -2.45458121      -4.58844544        3
H       -8.37192820      -1.58801348      -4.36277136        3
H       -8.03741141      -3.06223174      -4.28107551        3
17
Properties=species:S:1:pos:R:3:fragment_id:I:1 config_id=prospective__prospective_diverse_04__cluster_3water__equilibrium molecule_id=prospective_diverse_04 smiles=c1nccs1 split=prospective chemical_role=nan category=cluster_3water motif=equilibrium regime=equilibrium conformer_index=0 n_solute_atoms=8 n_waters=3 nextgen_pool_status=OLD_PROSPECTIVE_NOW_DEVELOPMENT pbc="F F F"
C        1.37214998      -0.09055001      -0.28230593        0
N        0.70441497       1.02370028      -0.07672554        0
C       -0.64841489       0.74505612      -0.05788454        0
C       -0.98849381      -0.57730164      -0.24951018        0
S        0.43204978      -1.51502684      -0.46220649        0
H        2.45268217      -0.11536374      -0.33614612        0
H       -1.35238758       1.55289076       0.10132035        0
H       -1.97200062      -1.02340493      -0.27399795        0
O       -1.84772307      -3.51925410      -0.61869847        1
H       -2.23141712      -3.70944038      -1.47475915        1
H       -1.62978496      -4.37834620      -0.25718002        1
O        1.78997329       2.73929500       0.49411307        2
H        2.34135756       3.47966953       0.74719959        2
H        0.91426108       2.97704806       0.79879889        2
O       -5.04872997      -1.70927639      -0.37171795        3
H       -4.77343149      -2.12205213       0.44685323        3
H       -4.26501268      -1.26127236      -0.69001251        3
17
Properties=species:S:1:pos:R:3:fragment_id:I:1 config_id=prospective__prospective_diverse_04__cluster_3water__orientation molecule_id=prospective_diverse_04 smiles=c1nccs1 split=prospective chemical_role=nan category=cluster_3water motif=orientation regime=orientation conformer_index=0 n_solute_atoms=8 n_waters=3 nextgen_pool_status=OLD_PROSPECTIVE_NOW_DEVELOPMENT pbc="F F F"
C        1.37214998      -0.09055001      -0.28230593        0
N        0.70441497       1.02370028      -0.07672554        0
C       -0.64841489       0.74505612      -0.05788454        0
C       -0.98849381      -0.57730164      -0.24951018        0
S        0.43204978      -1.51502684      -0.46220649        0
H        2.45268217      -0.11536374      -0.33614612        0
H       -1.35238758       1.55289076       0.10132035        0
H       -1.97200062      -1.02340493      -0.27399795        0
O       -1.84772307      -3.51925410      -0.61869847        1
H       -0.95032313      -3.50236946      -0.28610246        1
H       -1.75724824      -3.75728119      -1.54140603        1
O        1.78997329       2.73929500       0.49411307        2
H        1.80975531       2.67317368      -0.46059552        2
H        2.02315837       3.64956207       0.67651488        2
O       -5.04872997      -1.70927639      -0.37171795        3
H       -5.47758212      -2.18788632      -1.08111927        3
H       -5.66136682      -1.00776541      -0.15083274        3
24
Properties=species:S:1:pos:R:3:fragment_id:I:1 config_id=prospective__prospective_diverse_05__cluster_3water__compressed molecule_id=prospective_diverse_05 smiles=O=S1(=O)CCCC1 split=prospective chemical_role=nan category=cluster_3water motif=compressed regime=compressed conformer_index=0 n_solute_atoms=15 n_waters=3 nextgen_pool_status=OLD_PROSPECTIVE_NOW_DEVELOPMENT pbc="F F F"
O       -1.87190928       1.00890348       1.35090769        0
S       -1.33947517       0.62250975       0.06087132        0
O       -2.07239471       0.82417850      -1.17166223        0
C       -0.81480000      -1.08317618       0.14737168        0
C        0.63632065      -1.08047239      -0.31977724        0
C        1.25685804       0.20063347       0.23374364        0
C        0.29248937       1.32591556      -0.12363579        0
H       -0.89038910      -1.40408293       1.19042334        0
H       -1.45699836      -1.70158511      -0.48284367        0
H        1.16814641      -1.97292757       0.02309030        0
H        0.67596306      -1.06505191      -1.41568521        0
H        2.25371432       0.38264655      -0.17859367        0
H        1.35231444       0.12242750       1.32351224        0
H        0.41101455       1.62686768      -1.16863899        0
H        0.39914580       2.19321361       0.53091659        0
O        1.23951861       3.75075141      -1.40163391        1
H        1.68111680       3.23196451      -0.72926272        1
H        0.41526625       3.28976544      -1.55762051        1
O        2.03214871       6.16028061      -2.28386933        2
H        2.53836980       5.52710913      -1.77488413        2
H        1.18009175       5.74213999      -2.40792258        2
O        2.66289788       8.52707559      -3.45883529        3
H        3.18634002       8.02530748      -2.83396016        3
H        1.86739511       8.00797558      -3.57691313        3
24
Properties=species:S:1:pos:R:3:fragment_id:I:1 config_id=prospective__prospective_diverse_05__cluster_3water__cooperative molecule_id=prospective_diverse_05 smiles=O=S1(=O)CCCC1 split=prospective chemical_role=nan category=cluster_3water motif=cooperative regime=cooperative conformer_index=0 n_solute_atoms=15 n_waters=3 nextgen_pool_status=OLD_PROSPECTIVE_NOW_DEVELOPMENT pbc="F F F"
O       -1.87190928       1.00890348       1.35090769        0
S       -1.33947517       0.62250975       0.06087132        0
O       -2.07239471       0.82417850      -1.17166223        0
C       -0.81480000      -1.08317618       0.14737168        0
C        0.63632065      -1.08047239      -0.31977724        0
C        1.25685804       0.20063347       0.23374364        0
C        0.29248937       1.32591556      -0.12363579        0
H       -0.89038910      -1.40408293       1.19042334        0
H       -1.45699836      -1.70158511      -0.48284367        0
H        1.16814641      -1.97292757       0.02309030        0
H        0.67596306      -1.06505191      -1.41568521        0
H        2.25371432       0.38264655      -0.17859367        0
H        1.35231444       0.12242750       1.32351224        0
H        0.41101455       1.62686768      -1.16863899        0
H        0.39914580       2.19321361       0.53091659        0
O        0.75514939       4.44752878      -0.53057947        1
H        1.41258021       3.77715984      -0.34450948        1
H       -0.07266337       3.96831383      -0.56678596        1
O        1.28990957       6.98429660      -1.40389873        2
H        1.87729967       6.38892864      -0.93834347        2
H        0.47346593       6.49309219      -1.49538564        2
O        1.75416002       9.69575118      -1.95572020        3
H        2.38873697       9.03938794      -1.66808980        3
H        0.92569569       9.21971520      -2.01289046        3
24
Properties=species:S:1:pos:R:3:fragment_id:I:1 config_id=prospective__prospective_diverse_05__cluster_3water__equilibrium molecule_id=prospective_diverse_05 smiles=O=S1(=O)CCCC1 split=prospective chemical_role=nan category=cluster_3water motif=equilibrium regime=equilibrium conformer_index=0 n_solute_atoms=15 n_waters=3 nextgen_pool_status=OLD_PROSPECTIVE_NOW_DEVELOPMENT pbc="F F F"
O       -1.87190928       1.00890348       1.35090769        0
S       -1.33947517       0.62250975       0.06087132        0
O       -2.07239471       0.82417850      -1.17166223        0
C       -0.81480000      -1.08317618       0.14737168        0
C        0.63632065      -1.08047239      -0.31977724        0
C        1.25685804       0.20063347       0.23374364        0
C        0.29248937       1.32591556      -0.12363579        0
H       -0.89038910      -1.40408293       1.19042334        0
H       -1.45699836      -1.70158511      -0.48284367        0
H        1.16814641      -1.97292757       0.02309030        0
H        0.67596306      -1.06505191      -1.41568521        0
H        2.25371432       0.38264655      -0.17859367        0
H        1.35231444       0.12242750       1.32351224        0
H        0.41101455       1.62686768      -1.16863899        0
H        0.39914580       2.19321361       0.53091659        0
O       -3.67056828       1.60071131       2.27115696        1
H       -4.59910123       1.73380459       2.46179950        1
H       -3.29269993       2.47990262       2.29283629        1
O        2.72785415      -2.62235329      -1.60149400        2
H        2.37354505      -2.56938553      -2.48912642        2
H        2.99601633      -1.72669004      -1.39629111        2
O       -3.57739311       2.34125147      -1.13932225        3
H       -3.03702797       3.00169210      -1.57297595        3
H       -4.21696672       2.08135615      -1.80236965        3
24
Properties=species:S:1:pos:R:3:fragment_id:I:1 config_id=prospective__prospective_diverse_05__cluster_3water__orientation molecule_id=prospective_diverse_05 smiles=O=S1(=O)CCCC1 split=prospective chemical_role=nan category=cluster_3water motif=orientation regime=orientation conformer_index=0 n_solute_atoms=15 n_waters=3 nextgen_pool_status=OLD_PROSPECTIVE_NOW_DEVELOPMENT pbc="F F F"
O       -1.87190928       1.00890348       1.35090769        0
S       -1.33947517       0.62250975       0.06087132        0
O       -2.07239471       0.82417850      -1.17166223        0
C       -0.81480000      -1.08317618       0.14737168        0
C        0.63632065      -1.08047239      -0.31977724        0
C        1.25685804       0.20063347       0.23374364        0
C        0.29248937       1.32591556      -0.12363579        0
H       -0.89038910      -1.40408293       1.19042334        0
H       -1.45699836      -1.70158511      -0.48284367        0
H        1.16814641      -1.97292757       0.02309030        0
H        0.67596306      -1.06505191      -1.41568521        0
H        2.25371432       0.38264655      -0.17859367        0
H        1.35231444       0.12242750       1.32351224        0
H        0.41101455       1.62686768      -1.16863899        0
H        0.39914580       2.19321361       0.53091659        0
O       -3.67056828       1.60071131       2.27115696        1
H       -3.58208451       2.21402585       1.54160385        1
H       -2.87439703       1.72564509       2.78762065        1
O        2.72785415      -2.62235329      -1.60149400        2
H        3.31925893      -2.38538627      -0.88712794        2
H        1.90876197      -2.17253634      -1.39416684        2
O       -3.57739311       2.34125147      -1.13932225        3
H       -2.73134592       2.78490107      -1.19941416        3
H       -3.39448836       1.43910596      -1.40183162        3
