7
Properties=species:S:1:pos:R:3 config_id=posthoc_shell__MNSOL-CONN-HSFWRNGVRCDJHI__parent_00__1w molecule_id=MNSOL-CONN-HSFWRNGVRCDJHI regime=liquid_shell_size interaction_regime=weak/nonpolar canonical_smiles=C#C parent_snapshot_index=0 source_frame_index=0 n_solute_atoms=4 n_waters=1 shell_waters=1 nearest_water_distances_A=2.48148558 source_water_indices=299 pbc="F F F"
C       20.66252947      16.27234459      22.29359150
C       20.75122118      17.49271989      22.31952190
H       20.51656485      15.21149158      22.30985641
H       20.89476347      18.54935765      22.22006798
O       18.26523185      14.17398691      22.19647884
H       18.07610512      15.01142144      21.77320004
H       18.11854720      13.52076530      21.51236296
13
Properties=species:S:1:pos:R:3 config_id=posthoc_shell__MNSOL-CONN-HSFWRNGVRCDJHI__parent_00__3w molecule_id=MNSOL-CONN-HSFWRNGVRCDJHI regime=liquid_shell_size interaction_regime=weak/nonpolar canonical_smiles=C#C parent_snapshot_index=0 source_frame_index=0 n_solute_atoms=4 n_waters=3 shell_waters=3 nearest_water_distances_A=2.48148558;2.63765379;2.82146964 source_water_indices=299;501;771 pbc="F F F"
C       20.66252947      16.27234459      22.29359150
C       20.75122118      17.49271989      22.31952190
H       20.51656485      15.21149158      22.30985641
H       20.89476347      18.54935765      22.22006798
O       18.26523185      14.17398691      22.19647884
H       18.07610512      15.01142144      21.77320004
H       18.11854720      13.52076530      21.51236296
O       19.93051171      13.96783948      24.56087589
H       19.34898138      14.19368386      23.83489370
H       19.51510072      14.35616612      25.33085585
O       22.94778109      20.09925604      23.37921619
H       22.40024328      20.77081680      22.97247171
H       23.28083038      19.58381414      22.64462233
22
Properties=species:S:1:pos:R:3 config_id=posthoc_shell__MNSOL-CONN-HSFWRNGVRCDJHI__parent_00__6w molecule_id=MNSOL-CONN-HSFWRNGVRCDJHI regime=liquid_shell_size interaction_regime=weak/nonpolar canonical_smiles=C#C parent_snapshot_index=0 source_frame_index=0 n_solute_atoms=4 n_waters=6 shell_waters=6 nearest_water_distances_A=2.48148558;2.63765379;2.82146964;3.19222178;3.32197748;3.36002214 source_water_indices=299;501;771;331;312;560 pbc="F F F"
C       20.66252947      16.27234459      22.29359150
C       20.75122118      17.49271989      22.31952190
H       20.51656485      15.21149158      22.30985641
H       20.89476347      18.54935765      22.22006798
O       18.26523185      14.17398691      22.19647884
H       18.07610512      15.01142144      21.77320004
H       18.11854720      13.52076530      21.51236296
O       19.93051171      13.96783948      24.56087589
H       19.34898138      14.19368386      23.83489370
H       19.51510072      14.35616612      25.33085585
O       22.94778109      20.09925604      23.37921619
H       22.40024328      20.77081680      22.97247171
H       23.28083038      19.58381414      22.64462233
O       21.16490364      21.71965837      21.96219683
H       20.29030561      21.41648054      21.71848774
H       21.47772551      22.19409704      21.19194746
O       19.14577484      19.63521242      24.82726812
H       19.54151392      20.50535202      24.87704992
H       19.08197045      19.45388079      23.88956785
O       18.29053879      20.36320210      21.11655951
H       17.66710281      20.01996994      20.47643900
H       18.39021921      21.28620863      20.88342428
40
Properties=species:S:1:pos:R:3 config_id=posthoc_shell__MNSOL-CONN-HSFWRNGVRCDJHI__parent_00__12w molecule_id=MNSOL-CONN-HSFWRNGVRCDJHI regime=liquid_shell_size interaction_regime=weak/nonpolar canonical_smiles=C#C parent_snapshot_index=0 source_frame_index=0 n_solute_atoms=4 n_waters=12 shell_waters=12 nearest_water_distances_A=2.48148558;2.63765379;2.82146964;3.19222178;3.32197748;3.36002214;3.58007956;3.67548401;3.69506569;3.71037482;3.73084629;3.77056994 source_water_indices=299;501;771;331;312;560;523;514;882;15;923;765 pbc="F F F"
C       20.66252947      16.27234459      22.29359150
C       20.75122118      17.49271989      22.31952190
H       20.51656485      15.21149158      22.30985641
H       20.89476347      18.54935765      22.22006798
O       18.26523185      14.17398691      22.19647884
H       18.07610512      15.01142144      21.77320004
H       18.11854720      13.52076530      21.51236296
O       19.93051171      13.96783948      24.56087589
H       19.34898138      14.19368386      23.83489370
H       19.51510072      14.35616612      25.33085585
O       22.94778109      20.09925604      23.37921619
H       22.40024328      20.77081680      22.97247171
H       23.28083038      19.58381414      22.64462233
O       21.16490364      21.71965837      21.96219683
H       20.29030561      21.41648054      21.71848774
H       21.47772551      22.19409704      21.19194746
O       19.14577484      19.63521242      24.82726812
H       19.54151392      20.50535202      24.87704992
H       19.08197045      19.45388079      23.88956785
O       18.29053879      20.36320210      21.11655951
H       17.66710281      20.01996994      20.47643900
H       18.39021921      21.28620863      20.88342428
O       17.38798857      16.62373066      20.88971138
H       16.70125008      16.67057276      20.22455692
H       18.17357540      16.94419622      20.44655561
O       23.80343914      13.96236420      23.38005304
H       23.15779924      13.86549950      24.08005476
H       24.55929518      13.45691204      23.67910147
O       22.46882051      17.57505590      25.59008513
H       22.59056360      18.49227041      25.83529517
H       22.99555302      17.46637885      24.79826812
O       23.03612471      15.87660432      19.46935415
H       23.79913330      16.43399000      19.31646824
H       23.23738337      15.41174293      20.28153181
O       20.26982784      15.78979731      18.61498475
H       19.88507867      16.64631009      18.80095243
H       21.11675262      15.80525517      19.06075597
O       19.21045303      18.27339768      18.85790467
H       19.12433505      18.40190649      17.91328788
H       19.87982512      18.90303731      19.12572145
7
Properties=species:S:1:pos:R:3 config_id=posthoc_shell__MNSOL-CONN-HSFWRNGVRCDJHI__parent_01__1w molecule_id=MNSOL-CONN-HSFWRNGVRCDJHI regime=liquid_shell_size interaction_regime=weak/nonpolar canonical_smiles=C#C parent_snapshot_index=1 source_frame_index=6 n_solute_atoms=4 n_waters=1 shell_waters=1 nearest_water_distances_A=2.57352752 source_water_indices=818 pbc="F F F"
C       18.15975904      21.00124598      22.59217262
C       18.56901288      20.29925585      23.52141380
H       17.85093784      21.67644501      21.82034492
H       18.85856271      19.52785134      24.20557499
O       19.99449492      17.43208885      23.23579073
H       19.37975168      17.90371776      22.67375231
H       20.59841871      17.00674295      22.62702942
13
Properties=species:S:1:pos:R:3 config_id=posthoc_shell__MNSOL-CONN-HSFWRNGVRCDJHI__parent_01__3w molecule_id=MNSOL-CONN-HSFWRNGVRCDJHI regime=liquid_shell_size interaction_regime=weak/nonpolar canonical_smiles=C#C parent_snapshot_index=1 source_frame_index=6 n_solute_atoms=4 n_waters=3 shell_waters=3 nearest_water_distances_A=2.57352752;2.77601237;2.84182931 source_water_indices=818;835;95 pbc="F F F"
C       18.15975904      21.00124598      22.59217262
C       18.56901288      20.29925585      23.52141380
H       17.85093784      21.67644501      21.82034492
H       18.85856271      19.52785134      24.20557499
O       19.99449492      17.43208885      23.23579073
H       19.37975168      17.90371776      22.67375231
H       20.59841871      17.00674295      22.62702942
O       18.25055838      24.29477215      22.65155554
H       19.00946379      24.27609682      22.06850529
H       18.62471342      24.35258865      23.53070021
O       17.68613935      22.60434389      19.13933039
H       18.48448515      23.10133457      18.96079063
H       17.86832809      21.72780037      18.80064130
22
Properties=species:S:1:pos:R:3 config_id=posthoc_shell__MNSOL-CONN-HSFWRNGVRCDJHI__parent_01__6w molecule_id=MNSOL-CONN-HSFWRNGVRCDJHI regime=liquid_shell_size interaction_regime=weak/nonpolar canonical_smiles=C#C parent_snapshot_index=1 source_frame_index=6 n_solute_atoms=4 n_waters=6 shell_waters=6 nearest_water_distances_A=2.57352752;2.77601237;2.84182931;2.99315113;2.99377600;3.13561074 source_water_indices=818;835;95;331;375;173 pbc="F F F"
C       18.15975904      21.00124598      22.59217262
C       18.56901288      20.29925585      23.52141380
H       17.85093784      21.67644501      21.82034492
H       18.85856271      19.52785134      24.20557499
O       19.99449492      17.43208885      23.23579073
H       19.37975168      17.90371776      22.67375231
H       20.59841871      17.00674295      22.62702942
O       18.25055838      24.29477215      22.65155554
H       19.00946379      24.27609682      22.06850529
H       18.62471342      24.35258865      23.53070021
O       17.68613935      22.60434389      19.13933039
H       18.48448515      23.10133457      18.96079063
H       17.86832809      21.72780037      18.80064130
O       20.45076132      23.06603193      21.30177021
H       20.70047855      22.18600988      21.58360958
H       20.75215816      23.12218666      20.39499760
O       21.52340710      19.42956850      25.56632463
H       20.99123508      18.72616850      25.93814895
H       21.95520341      19.03025486      24.81112108
O       16.12055302      18.01730871      23.97401810
H       16.14921927      18.60543370      24.72868204
H       16.35815501      17.16044664      24.32836771
40
Properties=species:S:1:pos:R:3 config_id=posthoc_shell__MNSOL-CONN-HSFWRNGVRCDJHI__parent_01__12w molecule_id=MNSOL-CONN-HSFWRNGVRCDJHI regime=liquid_shell_size interaction_regime=weak/nonpolar canonical_smiles=C#C parent_snapshot_index=1 source_frame_index=6 n_solute_atoms=4 n_waters=12 shell_waters=12 nearest_water_distances_A=2.57352752;2.77601237;2.84182931;2.99315113;2.99377600;3.13561074;3.18951604;3.21336248;3.28634213;3.43211247;3.47417550;3.51423907 source_water_indices=818;835;95;331;375;173;248;956;936;1039;521;199 pbc="F F F"
C       18.15975904      21.00124598      22.59217262
C       18.56901288      20.29925585      23.52141380
H       17.85093784      21.67644501      21.82034492
H       18.85856271      19.52785134      24.20557499
O       19.99449492      17.43208885      23.23579073
H       19.37975168      17.90371776      22.67375231
H       20.59841871      17.00674295      22.62702942
O       18.25055838      24.29477215      22.65155554
H       19.00946379      24.27609682      22.06850529
H       18.62471342      24.35258865      23.53070021
O       17.68613935      22.60434389      19.13933039
H       18.48448515      23.10133457      18.96079063
H       17.86832809      21.72780037      18.80064130
O       20.45076132      23.06603193      21.30177021
H       20.70047855      22.18600988      21.58360958
H       20.75215816      23.12218666      20.39499760
O       21.52340710      19.42956850      25.56632463
H       20.99123508      18.72616850      25.93814895
H       21.95520341      19.03025486      24.81112108
O       16.12055302      18.01730871      23.97401810
H       16.14921927      18.60543370      24.72868204
H       16.35815501      17.16044664      24.32836771
O       16.63820028      22.82166004      24.72383022
H       17.21605062      23.11354399      24.01875973
H       17.20858574      22.32723713      25.31242132
O       20.18389419      17.06698537      25.79092465
H       20.08103237      17.09812760      24.83977724
H       19.62694526      16.33980393      26.06886074
O       16.42403960      19.77104828      26.39965728
H       16.81455255      19.17352051      27.03738242
H       17.02410817      20.51622242      26.37019895
O       14.67207789      21.19756222      23.02239180
H       15.06145358      20.37565231      22.72392750
H       15.26880980      21.51334763      23.70093584
O       18.35541304      21.51484787      27.01067403
H       19.14325744      21.02668017      27.24989191
H       18.20075132      22.09942073      27.75268912
O       15.14439821      22.62885571      19.79119897
H       16.09541297      22.61150599      19.89844203
H       14.87215400      21.71976089      19.91633534
7
Properties=species:S:1:pos:R:3 config_id=posthoc_shell__MNSOL-CONN-HSFWRNGVRCDJHI__parent_02__1w molecule_id=MNSOL-CONN-HSFWRNGVRCDJHI regime=liquid_shell_size interaction_regime=weak/nonpolar canonical_smiles=C#C parent_snapshot_index=2 source_frame_index=12 n_solute_atoms=4 n_waters=1 shell_waters=1 nearest_water_distances_A=2.96678340 source_water_indices=508 pbc="F F F"
C       24.19466734      17.28812456       9.44003344
C       24.49511766      17.75656700      10.53217173
H       23.76976967      16.76072955       8.61039639
H       24.78410721      18.22876692      11.44895554
O       26.12236977      20.51182270      12.79004216
H       26.49243832      20.38752794      11.91606760
H       25.21755695      20.78090429      12.63148904
13
Properties=species:S:1:pos:R:3 config_id=posthoc_shell__MNSOL-CONN-HSFWRNGVRCDJHI__parent_02__3w molecule_id=MNSOL-CONN-HSFWRNGVRCDJHI regime=liquid_shell_size interaction_regime=weak/nonpolar canonical_smiles=C#C parent_snapshot_index=2 source_frame_index=12 n_solute_atoms=4 n_waters=3 shell_waters=3 nearest_water_distances_A=2.96678340;2.97708187;2.99140221 source_water_indices=508;782;430 pbc="F F F"
C       24.19466734      17.28812456       9.44003344
C       24.49511766      17.75656700      10.53217173
H       23.76976967      16.76072955       8.61039639
H       24.78410721      18.22876692      11.44895554
O       26.12236977      20.51182270      12.79004216
H       26.49243832      20.38752794      11.91606760
H       25.21755695      20.78090429      12.63148904
O       25.02087116      16.69049382       5.90987265
H       24.57009077      17.52647877       5.79089284
H       25.83616734      16.91888094       6.35637283
O       22.45994806      19.15188313      13.09048772
H       22.29496717      18.26285839      13.40456963
H       22.17595577      19.14006233      12.17646360
22
Properties=species:S:1:pos:R:3 config_id=posthoc_shell__MNSOL-CONN-HSFWRNGVRCDJHI__parent_02__6w molecule_id=MNSOL-CONN-HSFWRNGVRCDJHI regime=liquid_shell_size interaction_regime=weak/nonpolar canonical_smiles=C#C parent_snapshot_index=2 source_frame_index=12 n_solute_atoms=4 n_waters=6 shell_waters=6 nearest_water_distances_A=2.96678340;2.97708187;2.99140221;3.13336033;3.18115383;3.24217470 source_water_indices=508;782;430;502;252;682 pbc="F F F"
C       24.19466734      17.28812456       9.44003344
C       24.49511766      17.75656700      10.53217173
H       23.76976967      16.76072955       8.61039639
H       24.78410721      18.22876692      11.44895554
O       26.12236977      20.51182270      12.79004216
H       26.49243832      20.38752794      11.91606760
H       25.21755695      20.78090429      12.63148904
O       25.02087116      16.69049382       5.90987265
H       24.57009077      17.52647877       5.79089284
H       25.83616734      16.91888094       6.35637283
O       22.45994806      19.15188313      13.09048772
H       22.29496717      18.26285839      13.40456963
H       22.17595577      19.14006233      12.17646360
O       21.73641920      19.20917273      10.21997571
H       21.90717459      19.13117766       9.28136468
H       20.80186129      19.40778136      10.27819395
O       23.98803949      21.15215302      10.47950745
H       24.67135429      20.59051514      10.11362076
H       23.16933393      20.77451706      10.15803099
O       27.19449997      16.23453021      12.30026245
H       26.43268108      16.29886150      12.87621975
H       27.26990223      17.10267186      11.90418601
40
Properties=species:S:1:pos:R:3 config_id=posthoc_shell__MNSOL-CONN-HSFWRNGVRCDJHI__parent_02__12w molecule_id=MNSOL-CONN-HSFWRNGVRCDJHI regime=liquid_shell_size interaction_regime=weak/nonpolar canonical_smiles=C#C parent_snapshot_index=2 source_frame_index=12 n_solute_atoms=4 n_waters=12 shell_waters=12 nearest_water_distances_A=2.96678340;2.97708187;2.99140221;3.13336033;3.18115383;3.24217470;3.40135663;3.40620545;3.42615643;3.59764039;3.74663685;3.75818570 source_water_indices=508;782;430;502;252;682;581;532;309;635;215;338 pbc="F F F"
C       24.19466734      17.28812456       9.44003344
C       24.49511766      17.75656700      10.53217173
H       23.76976967      16.76072955       8.61039639
H       24.78410721      18.22876692      11.44895554
O       26.12236977      20.51182270      12.79004216
H       26.49243832      20.38752794      11.91606760
H       25.21755695      20.78090429      12.63148904
O       25.02087116      16.69049382       5.90987265
H       24.57009077      17.52647877       5.79089284
H       25.83616734      16.91888094       6.35637283
O       22.45994806      19.15188313      13.09048772
H       22.29496717      18.26285839      13.40456963
H       22.17595577      19.14006233      12.17646360
O       21.73641920      19.20917273      10.21997571
H       21.90717459      19.13117766       9.28136468
H       20.80186129      19.40778136      10.27819395
O       23.98803949      21.15215302      10.47950745
H       24.67135429      20.59051514      10.11362076
H       23.16933393      20.77451706      10.15803099
O       27.19449997      16.23453021      12.30026245
H       26.43268108      16.29886150      12.87621975
H       27.26990223      17.10267186      11.90418601
O       25.16705751      16.38610363      14.28218126
H       25.25397301      16.38538480      15.23542643
H       24.22788143      16.28598809      14.12675619
O       27.23265409      17.42945313       7.90611744
H       27.94553518      17.13862181       8.47484350
H       26.53597116      17.68987656       8.50864887
O       20.75671434      18.03078413       7.58716285
H       21.69126511      17.87013054       7.45662570
H       20.32360077      17.30116367       7.14410782
O       24.34243441      13.40925574       9.78627682
H       24.66213226      12.58064866      10.14325976
H       24.83252048      13.52486134       8.97222340
O       20.81264257      15.12475610       6.99290514
H       21.69221163      14.96183157       6.65224969
H       20.79849482      14.68303442       7.84197152
O       22.46185303      16.50382638      13.84805441
H       22.20999718      16.23530269      14.73162413
H       22.46392250      15.69147587      13.34177852
16
Properties=species:S:1:pos:R:3 config_id=posthoc_shell__MNSOL-CONN-ZWEHNKRNPOVVGH__parent_00__1w molecule_id=MNSOL-CONN-ZWEHNKRNPOVVGH regime=liquid_shell_size interaction_regime="carbonyl acceptor" canonical_smiles=CCC(C)=O parent_snapshot_index=0 source_frame_index=0 n_solute_atoms=13 n_waters=1 shell_waters=1 nearest_water_distances_A=2.69750592 source_water_indices=34 pbc="F F F"
C       18.91052127       4.29705858      23.33425760
C       18.09649229       5.39685547      22.60865688
C       17.11175323       4.75882083      21.58137560
C       15.62209606       4.33390319      21.93703413
O       17.44367003       4.52790678      20.45454502
H       18.37379098       3.65158707      24.03573990
H       19.71283197       4.80774581      23.87489080
H       19.41447496       3.72326940      22.55094051
H       17.48637795       6.04562402      23.24399233
H       18.80240798       5.93944252      21.97299004
H       15.50989151       4.49843973      23.01273346
H       14.79884982       4.89319950      21.48289680
H       15.44811487       3.27891529      21.70568943
O       12.90930033       2.46411577      22.11441994
H       12.47980356       1.86597288      22.72596598
H       13.61772776       2.85912693      22.62268066
22
Properties=species:S:1:pos:R:3 config_id=posthoc_shell__MNSOL-CONN-ZWEHNKRNPOVVGH__parent_00__3w molecule_id=MNSOL-CONN-ZWEHNKRNPOVVGH regime=liquid_shell_size interaction_regime="carbonyl acceptor" canonical_smiles=CCC(C)=O parent_snapshot_index=0 source_frame_index=0 n_solute_atoms=13 n_waters=3 shell_waters=3 nearest_water_distances_A=2.69750592;2.79899105;2.79966279 source_water_indices=34;939;958 pbc="F F F"
C       18.91052127       4.29705858      23.33425760
C       18.09649229       5.39685547      22.60865688
C       17.11175323       4.75882083      21.58137560
C       15.62209606       4.33390319      21.93703413
O       17.44367003       4.52790678      20.45454502
H       18.37379098       3.65158707      24.03573990
H       19.71283197       4.80774581      23.87489080
H       19.41447496       3.72326940      22.55094051
H       17.48637795       6.04562402      23.24399233
H       18.80240798       5.93944252      21.97299004
H       15.50989151       4.49843973      23.01273346
H       14.79884982       4.89319950      21.48289680
H       15.44811487       3.27891529      21.70568943
O       12.90930033       2.46411577      22.11441994
H       12.47980356       1.86597288      22.72596598
H       13.61772776       2.85912693      22.62268066
O       13.49694729       5.88184297      24.37970161
H       13.00832510       6.65749192      24.65510607
H       12.84840584       5.17783940      24.37771082
O       18.45181227       1.37658209      21.36584520
H       18.30507278       1.65656999      22.26934195
H       18.95045280       0.56332506      21.44460201
31
Properties=species:S:1:pos:R:3 config_id=posthoc_shell__MNSOL-CONN-ZWEHNKRNPOVVGH__parent_00__6w molecule_id=MNSOL-CONN-ZWEHNKRNPOVVGH regime=liquid_shell_size interaction_regime="carbonyl acceptor" canonical_smiles=CCC(C)=O parent_snapshot_index=0 source_frame_index=0 n_solute_atoms=13 n_waters=6 shell_waters=6 nearest_water_distances_A=2.69750592;2.79899105;2.79966279;2.80500233;2.82182149;2.85625199 source_water_indices=34;939;958;292;1014;47 pbc="F F F"
C       18.91052127       4.29705858      23.33425760
C       18.09649229       5.39685547      22.60865688
C       17.11175323       4.75882083      21.58137560
C       15.62209606       4.33390319      21.93703413
O       17.44367003       4.52790678      20.45454502
H       18.37379098       3.65158707      24.03573990
H       19.71283197       4.80774581      23.87489080
H       19.41447496       3.72326940      22.55094051
H       17.48637795       6.04562402      23.24399233
H       18.80240798       5.93944252      21.97299004
H       15.50989151       4.49843973      23.01273346
H       14.79884982       4.89319950      21.48289680
H       15.44811487       3.27891529      21.70568943
O       12.90930033       2.46411577      22.11441994
H       12.47980356       1.86597288      22.72596598
H       13.61772776       2.85912693      22.62268066
O       13.49694729       5.88184297      24.37970161
H       13.00832510       6.65749192      24.65510607
H       12.84840584       5.17783940      24.37771082
O       18.45181227       1.37658209      21.36584520
H       18.30507278       1.65656999      22.26934195
H       18.95045280       0.56332506      21.44460201
O       18.18570852       8.71530533      22.74221897
H       17.46137261       9.24363196      23.07754040
H       17.90697575       8.45571339      21.86406612
O       15.89367628       3.16726685      25.47105901
H       16.07141256       2.45144844      26.08117871
H       16.20530367       3.95114422      25.92344873
O       17.47587085       7.95030415      20.43841839
H       16.54284239       7.82946229      20.26210546
H       17.89166689       7.16723263      20.07766247
49
Properties=species:S:1:pos:R:3 config_id=posthoc_shell__MNSOL-CONN-ZWEHNKRNPOVVGH__parent_00__12w molecule_id=MNSOL-CONN-ZWEHNKRNPOVVGH regime=liquid_shell_size interaction_regime="carbonyl acceptor" canonical_smiles=CCC(C)=O parent_snapshot_index=0 source_frame_index=0 n_solute_atoms=13 n_waters=12 shell_waters=12 nearest_water_distances_A=2.69750592;2.79899105;2.79966279;2.80500233;2.82182149;2.85625199;2.86896938;2.89338136;2.90675349;2.93007184;2.96075814;2.97519331 source_water_indices=34;939;958;292;1014;47;471;244;29;73;368;604 pbc="F F F"
C       18.91052127       4.29705858      23.33425760
C       18.09649229       5.39685547      22.60865688
C       17.11175323       4.75882083      21.58137560
C       15.62209606       4.33390319      21.93703413
O       17.44367003       4.52790678      20.45454502
H       18.37379098       3.65158707      24.03573990
H       19.71283197       4.80774581      23.87489080
H       19.41447496       3.72326940      22.55094051
H       17.48637795       6.04562402      23.24399233
H       18.80240798       5.93944252      21.97299004
H       15.50989151       4.49843973      23.01273346
H       14.79884982       4.89319950      21.48289680
H       15.44811487       3.27891529      21.70568943
O       12.90930033       2.46411577      22.11441994
H       12.47980356       1.86597288      22.72596598
H       13.61772776       2.85912693      22.62268066
O       13.49694729       5.88184297      24.37970161
H       13.00832510       6.65749192      24.65510607
H       12.84840584       5.17783940      24.37771082
O       18.45181227       1.37658209      21.36584520
H       18.30507278       1.65656999      22.26934195
H       18.95045280       0.56332506      21.44460201
O       18.18570852       8.71530533      22.74221897
H       17.46137261       9.24363196      23.07754040
H       17.90697575       8.45571339      21.86406612
O       15.89367628       3.16726685      25.47105901
H       16.07141256       2.45144844      26.08117871
H       16.20530367       3.95114422      25.92344873
O       17.47587085       7.95030415      20.43841839
H       16.54284239       7.82946229      20.26210546
H       17.89166689       7.16723263      20.07766247
O       18.69920418       7.61895180      25.31393860
H       19.55115899       7.90959358      25.63940935
H       18.68465416       7.89683819      24.39807869
O       19.80137706       3.46719891      19.15540218
H       19.16458249       3.84470820      19.76220608
H       19.30114388       2.82565892      18.65099669
O       15.59462905       3.72393638      18.36076975
H       15.28383613       2.88501590      18.70113969
H       16.19796038       4.04596448      19.03048635
O       13.91999960       1.63438171      19.82268810
H       14.70884681       1.14070527      20.04682064
H       13.50911379       1.82588950      20.66573620
O       12.80919433       5.43553412      19.35845971
H       12.16993332       4.73282635      19.24107313
H       13.65020752       5.03376782      19.14048910
O       18.95175576       0.73462762      24.13102627
H       18.26247931       0.07142176      24.16690588
H       19.76522088       0.24125174      24.23631191
16
Properties=species:S:1:pos:R:3 config_id=posthoc_shell__MNSOL-CONN-ZWEHNKRNPOVVGH__parent_01__1w molecule_id=MNSOL-CONN-ZWEHNKRNPOVVGH regime=liquid_shell_size interaction_regime="carbonyl acceptor" canonical_smiles=CCC(C)=O parent_snapshot_index=1 source_frame_index=13 n_solute_atoms=13 n_waters=1 shell_waters=1 nearest_water_distances_A=2.50743162 source_water_indices=452 pbc="F F F"
C       17.03691006      29.57227945      22.78768063
C       15.67259550      30.03367901      23.37738991
C       15.61989546      29.82957840      24.95113134
C       14.34732795      30.25441647      25.65857172
O       16.53163195      29.23097372      25.57976961
H       17.87482858      30.24794340      22.98302412
H       16.94200158      29.52564478      21.69882536
H       17.23427534      28.54766130      23.11630726
H       15.50863147      31.09705687      23.17956924
H       14.81670022      29.47671413      22.98493385
H       13.65693808      29.41844940      25.80456018
H       14.51701522      30.54636478      26.69913054
H       13.82987261      31.06266975      25.13345003
O       15.05032420      27.27420330      21.80952787
H       15.16063809      26.65465832      22.53079414
H       15.94232917      27.46993303      21.52273655
22
Properties=species:S:1:pos:R:3 config_id=posthoc_shell__MNSOL-CONN-ZWEHNKRNPOVVGH__parent_01__3w molecule_id=MNSOL-CONN-ZWEHNKRNPOVVGH regime=liquid_shell_size interaction_regime="carbonyl acceptor" canonical_smiles=CCC(C)=O parent_snapshot_index=1 source_frame_index=13 n_solute_atoms=13 n_waters=3 shell_waters=3 nearest_water_distances_A=2.50743162;2.61958727;2.62305765 source_water_indices=452;182;611 pbc="F F F"
C       17.03691006      29.57227945      22.78768063
C       15.67259550      30.03367901      23.37738991
C       15.61989546      29.82957840      24.95113134
C       14.34732795      30.25441647      25.65857172
O       16.53163195      29.23097372      25.57976961
H       17.87482858      30.24794340      22.98302412
H       16.94200158      29.52564478      21.69882536
H       17.23427534      28.54766130      23.11630726
H       15.50863147      31.09705687      23.17956924
H       14.81670022      29.47671413      22.98493385
H       13.65693808      29.41844940      25.80456018
H       14.51701522      30.54636478      26.69913054
H       13.82987261      31.06266975      25.13345003
O       15.05032420      27.27420330      21.80952787
H       15.16063809      26.65465832      22.53079414
H       15.94232917      27.46993303      21.52273655
O       19.08358216      27.58218288      21.53196096
H       19.46332693      28.20961475      22.14706659
H       19.57132816      27.71734238      20.71951628
O       14.06897902      33.48641038      26.10748336
H       13.13263774      33.43922138      26.30054168
H       14.13366675      34.10935044      25.38360957
31
Properties=species:S:1:pos:R:3 config_id=posthoc_shell__MNSOL-CONN-ZWEHNKRNPOVVGH__parent_01__6w molecule_id=MNSOL-CONN-ZWEHNKRNPOVVGH regime=liquid_shell_size interaction_regime="carbonyl acceptor" canonical_smiles=CCC(C)=O parent_snapshot_index=1 source_frame_index=13 n_solute_atoms=13 n_waters=6 shell_waters=6 nearest_water_distances_A=2.50743162;2.61958727;2.62305765;2.66487747;2.67284629;2.89863320 source_water_indices=452;182;611;335;276;743 pbc="F F F"
C       17.03691006      29.57227945      22.78768063
C       15.67259550      30.03367901      23.37738991
C       15.61989546      29.82957840      24.95113134
C       14.34732795      30.25441647      25.65857172
O       16.53163195      29.23097372      25.57976961
H       17.87482858      30.24794340      22.98302412
H       16.94200158      29.52564478      21.69882536
H       17.23427534      28.54766130      23.11630726
H       15.50863147      31.09705687      23.17956924
H       14.81670022      29.47671413      22.98493385
H       13.65693808      29.41844940      25.80456018
H       14.51701522      30.54636478      26.69913054
H       13.82987261      31.06266975      25.13345003
O       15.05032420      27.27420330      21.80952787
H       15.16063809      26.65465832      22.53079414
H       15.94232917      27.46993303      21.52273655
O       19.08358216      27.58218288      21.53196096
H       19.46332693      28.20961475      22.14706659
H       19.57132816      27.71734238      20.71951628
O       14.06897902      33.48641038      26.10748336
H       13.13263774      33.43922138      26.30054168
H       14.13366675      34.10935044      25.38360957
O       16.32750154      29.98906851      28.57346565
H       16.27578855      30.93298435      28.42320055
H       17.21432328      29.75121737      28.30289572
O       19.00207788      30.35205722      25.40429994
H       19.17799070      29.98292804      26.26976505
H       18.07637235      30.16569853      25.24754817
O       20.17012596      32.01675653      23.05362463
H       20.86306334      32.62971878      23.29927444
H       19.92186189      31.59331799      23.87538910
49
Properties=species:S:1:pos:R:3 config_id=posthoc_shell__MNSOL-CONN-ZWEHNKRNPOVVGH__parent_01__12w molecule_id=MNSOL-CONN-ZWEHNKRNPOVVGH regime=liquid_shell_size interaction_regime="carbonyl acceptor" canonical_smiles=CCC(C)=O parent_snapshot_index=1 source_frame_index=13 n_solute_atoms=13 n_waters=12 shell_waters=12 nearest_water_distances_A=2.50743162;2.61958727;2.62305765;2.66487747;2.67284629;2.89863320;2.95337774;2.96319194;2.98229663;2.99552013;3.03118172;3.08090873 source_water_indices=452;182;611;335;276;743;433;432;621;489;959;286 pbc="F F F"
C       17.03691006      29.57227945      22.78768063
C       15.67259550      30.03367901      23.37738991
C       15.61989546      29.82957840      24.95113134
C       14.34732795      30.25441647      25.65857172
O       16.53163195      29.23097372      25.57976961
H       17.87482858      30.24794340      22.98302412
H       16.94200158      29.52564478      21.69882536
H       17.23427534      28.54766130      23.11630726
H       15.50863147      31.09705687      23.17956924
H       14.81670022      29.47671413      22.98493385
H       13.65693808      29.41844940      25.80456018
H       14.51701522      30.54636478      26.69913054
H       13.82987261      31.06266975      25.13345003
O       15.05032420      27.27420330      21.80952787
H       15.16063809      26.65465832      22.53079414
H       15.94232917      27.46993303      21.52273655
O       19.08358216      27.58218288      21.53196096
H       19.46332693      28.20961475      22.14706659
H       19.57132816      27.71734238      20.71951628
O       14.06897902      33.48641038      26.10748336
H       13.13263774      33.43922138      26.30054168
H       14.13366675      34.10935044      25.38360957
O       16.32750154      29.98906851      28.57346565
H       16.27578855      30.93298435      28.42320055
H       17.21432328      29.75121737      28.30289572
O       19.00207788      30.35205722      25.40429994
H       19.17799070      29.98292804      26.26976505
H       18.07637235      30.16569853      25.24754817
O       20.17012596      32.01675653      23.05362463
H       20.86306334      32.62971878      23.29927444
H       19.92186189      31.59331799      23.87538910
O       17.85358796      26.59732997      25.77672895
H       18.46103579      26.58993542      26.51644796
H       17.47239355      27.47528017      25.78799292
O       14.51586366      31.73689127      20.46193600
H       14.67227459      30.82950115      20.20038128
H       13.57169509      31.78400993      20.61212540
O       14.67408180      29.21615839      19.78705883
H       15.20755887      28.59665394      19.28921461
H       14.58581567      28.81584167      20.65203905
O       15.88214993      32.65196085      28.33498299
H       14.97045636      32.36040235      28.34114611
H       15.96032023      33.17860365      27.53951579
O       18.61118913      30.15619040      19.24846053
H       18.84628892      30.98887682      19.65784311
H       19.44888234      29.71910715      19.09529567
O       13.83019567      29.41172838      29.47993577
H       14.62472320      29.60702896      28.98313224
H       13.50878119      30.26723385      29.76460338
16
Properties=species:S:1:pos:R:3 config_id=posthoc_shell__MNSOL-CONN-ZWEHNKRNPOVVGH__parent_02__1w molecule_id=MNSOL-CONN-ZWEHNKRNPOVVGH regime=liquid_shell_size interaction_regime="carbonyl acceptor" canonical_smiles=CCC(C)=O parent_snapshot_index=2 source_frame_index=26 n_solute_atoms=13 n_waters=1 shell_waters=1 nearest_water_distances_A=2.69508084 source_water_indices=594 pbc="F F F"
C       24.95705843      12.66963363      13.60038996
C       24.38275814      12.92730927      12.15826750
C       22.86034584      13.04516196      12.20404148
C       22.16285706      14.03786659      13.01961064
O       22.31122494      12.02345967      11.85818672
H       24.95441914      13.57348919      14.21669245
H       25.99886179      12.37057567      13.45206022
H       24.48012590      11.86392546      14.16621566
H       24.91240263      13.71194124      11.60998106
H       24.60916519      12.04399705      11.55387640
H       22.32135296      15.04184008      12.61500359
H       21.09035969      13.85877728      12.89933443
H       22.56638050      13.96507382      14.03383851
O       25.71185350      10.03377557      10.13734937
H       24.78892803       9.93224680       9.90468562
H       25.77990294       9.66223896      11.01687312
22
Properties=species:S:1:pos:R:3 config_id=posthoc_shell__MNSOL-CONN-ZWEHNKRNPOVVGH__parent_02__3w molecule_id=MNSOL-CONN-ZWEHNKRNPOVVGH regime=liquid_shell_size interaction_regime="carbonyl acceptor" canonical_smiles=CCC(C)=O parent_snapshot_index=2 source_frame_index=26 n_solute_atoms=13 n_waters=3 shell_waters=3 nearest_water_distances_A=2.69508084;2.70132356;2.79201105 source_water_indices=594;625;222 pbc="F F F"
C       24.95705843      12.66963363      13.60038996
C       24.38275814      12.92730927      12.15826750
C       22.86034584      13.04516196      12.20404148
C       22.16285706      14.03786659      13.01961064
O       22.31122494      12.02345967      11.85818672
H       24.95441914      13.57348919      14.21669245
H       25.99886179      12.37057567      13.45206022
H       24.48012590      11.86392546      14.16621566
H       24.91240263      13.71194124      11.60998106
H       24.60916519      12.04399705      11.55387640
H       22.32135296      15.04184008      12.61500359
H       21.09035969      13.85877728      12.89933443
H       22.56638050      13.96507382      14.03383851
O       25.71185350      10.03377557      10.13734937
H       24.78892803       9.93224680       9.90468562
H       25.77990294       9.66223896      11.01687312
O       22.96960115      10.05335212      10.13123393
H       22.65536785      10.21088839       9.24091280
H       22.64182568      10.79728246      10.63656807
O       25.98694801      16.27772212      11.37030125
H       25.62962770      17.09661841      11.02684379
H       26.54458761      15.94547510      10.66682220
31
Properties=species:S:1:pos:R:3 config_id=posthoc_shell__MNSOL-CONN-ZWEHNKRNPOVVGH__parent_02__6w molecule_id=MNSOL-CONN-ZWEHNKRNPOVVGH regime=liquid_shell_size interaction_regime="carbonyl acceptor" canonical_smiles=CCC(C)=O parent_snapshot_index=2 source_frame_index=26 n_solute_atoms=13 n_waters=6 shell_waters=6 nearest_water_distances_A=2.69508084;2.70132356;2.79201105;2.89588079;2.93772226;2.99185576 source_water_indices=594;625;222;397;190;918 pbc="F F F"
C       24.95705843      12.66963363      13.60038996
C       24.38275814      12.92730927      12.15826750
C       22.86034584      13.04516196      12.20404148
C       22.16285706      14.03786659      13.01961064
O       22.31122494      12.02345967      11.85818672
H       24.95441914      13.57348919      14.21669245
H       25.99886179      12.37057567      13.45206022
H       24.48012590      11.86392546      14.16621566
H       24.91240263      13.71194124      11.60998106
H       24.60916519      12.04399705      11.55387640
H       22.32135296      15.04184008      12.61500359
H       21.09035969      13.85877728      12.89933443
H       22.56638050      13.96507382      14.03383851
O       25.71185350      10.03377557      10.13734937
H       24.78892803       9.93224680       9.90468562
H       25.77990294       9.66223896      11.01687312
O       22.96960115      10.05335212      10.13123393
H       22.65536785      10.21088839       9.24091280
H       22.64182568      10.79728246      10.63656807
O       25.98694801      16.27772212      11.37030125
H       25.62962770      17.09661841      11.02684379
H       26.54458761      15.94547510      10.66682220
O       24.46001291      14.58974004       8.88767719
H       25.27542830      14.25379395       9.25979197
H       24.73337889      15.31527758       8.32634211
O       25.95851660       9.49807227      12.83780575
H       26.37078524       8.64953101      12.67580748
H       26.64855480      10.02781630      13.23711753
O       22.02903509      10.89129925      15.57949305
H       21.82310343      11.51989698      16.27136707
H       21.75959826      10.04491925      15.93625069
49
Properties=species:S:1:pos:R:3 config_id=posthoc_shell__MNSOL-CONN-ZWEHNKRNPOVVGH__parent_02__12w molecule_id=MNSOL-CONN-ZWEHNKRNPOVVGH regime=liquid_shell_size interaction_regime="carbonyl acceptor" canonical_smiles=CCC(C)=O parent_snapshot_index=2 source_frame_index=26 n_solute_atoms=13 n_waters=12 shell_waters=12 nearest_water_distances_A=2.69508084;2.70132356;2.79201105;2.89588079;2.93772226;2.99185576;3.03057185;3.03648982;3.16734462;3.22961313;3.30116036;3.39259868 source_water_indices=594;625;222;397;190;918;207;538;1039;757;600;551 pbc="F F F"
C       24.95705843      12.66963363      13.60038996
C       24.38275814      12.92730927      12.15826750
C       22.86034584      13.04516196      12.20404148
C       22.16285706      14.03786659      13.01961064
O       22.31122494      12.02345967      11.85818672
H       24.95441914      13.57348919      14.21669245
H       25.99886179      12.37057567      13.45206022
H       24.48012590      11.86392546      14.16621566
H       24.91240263      13.71194124      11.60998106
H       24.60916519      12.04399705      11.55387640
H       22.32135296      15.04184008      12.61500359
H       21.09035969      13.85877728      12.89933443
H       22.56638050      13.96507382      14.03383851
O       25.71185350      10.03377557      10.13734937
H       24.78892803       9.93224680       9.90468562
H       25.77990294       9.66223896      11.01687312
O       22.96960115      10.05335212      10.13123393
H       22.65536785      10.21088839       9.24091280
H       22.64182568      10.79728246      10.63656807
O       25.98694801      16.27772212      11.37030125
H       25.62962770      17.09661841      11.02684379
H       26.54458761      15.94547510      10.66682220
O       24.46001291      14.58974004       8.88767719
H       25.27542830      14.25379395       9.25979197
H       24.73337889      15.31527758       8.32634211
O       25.95851660       9.49807227      12.83780575
H       26.37078524       8.64953101      12.67580748
H       26.64855480      10.02781630      13.23711753
O       22.02903509      10.89129925      15.57949305
H       21.82310343      11.51989698      16.27136707
H       21.75959826      10.04491925      15.93625069
O       20.04118204      10.54032564      13.21154714
H       20.35934448      10.99612594      13.99080992
H       20.53293467      10.92946291      12.48837233
O       21.62790060      15.45244575       9.68741119
H       21.26292944      14.76089716       9.13533449
H       22.57601976      15.35248160       9.60193217
O       25.81260920      12.83750057      17.17539191
H       25.43941021      13.62061977      17.57996440
H       26.10159874      13.12867284      16.31055951
O       24.81100798      10.07185817      16.83256388
H       24.99954939      11.00698709      16.91142678
H       24.19053078      10.01257062      16.10611677
O       27.13221312      12.41703033       9.45799112
H       26.63573503      11.61886334       9.63874757
H       26.98072195      12.58858085       8.52855444
O       27.76658535      15.19614816      15.20077825
H       28.42332363      15.67129612      14.69170094
H       28.09800625      15.21647334      16.09854221
11
Properties=species:S:1:pos:R:3 config_id=posthoc_shell__MNSOL-CONN-XSQUKJJJFZCRTK__parent_00__1w molecule_id=MNSOL-CONN-XSQUKJJJFZCRTK regime=liquid_shell_size interaction_regime="strong donor/acceptor" canonical_smiles=NC(N)=O parent_snapshot_index=0 source_frame_index=0 n_solute_atoms=8 n_waters=1 shell_waters=1 nearest_water_distances_A=1.97305683 source_water_indices=312 pbc="F F F"
N       29.17056799      24.82500315       9.83112335
C       28.14829350      24.61397409       8.99019063
N       27.86973476      25.52089214       8.05327296
O       27.40519285      23.72373581       9.27183151
H       29.67314243      24.03066874      10.22380710
H       29.72859621      25.64286709       9.59142864
H       26.93801880      25.53069115       7.64149308
H       28.27693462      26.45393848       8.01631629
O       25.04128218      26.05314493       7.49187529
H       24.37207699      26.08233929       6.80810511
H       25.11761427      26.95893288       7.79179871
17
Properties=species:S:1:pos:R:3 config_id=posthoc_shell__MNSOL-CONN-XSQUKJJJFZCRTK__parent_00__3w molecule_id=MNSOL-CONN-XSQUKJJJFZCRTK regime=liquid_shell_size interaction_regime="strong donor/acceptor" canonical_smiles=NC(N)=O parent_snapshot_index=0 source_frame_index=0 n_solute_atoms=8 n_waters=3 shell_waters=3 nearest_water_distances_A=1.97305683;2.61155840;2.64722798 source_water_indices=312;856;874 pbc="F F F"
N       29.17056799      24.82500315       9.83112335
C       28.14829350      24.61397409       8.99019063
N       27.86973476      25.52089214       8.05327296
O       27.40519285      23.72373581       9.27183151
H       29.67314243      24.03066874      10.22380710
H       29.72859621      25.64286709       9.59142864
H       26.93801880      25.53069115       7.64149308
H       28.27693462      26.45393848       8.01631629
O       25.04128218      26.05314493       7.49187529
H       24.37207699      26.08233929       6.80810511
H       25.11761427      26.95893288       7.79179871
O       31.22703075      23.32499027      12.20059395
H       31.56337738      23.71543169      11.39395952
H       31.99855566      22.95073271      12.62592912
O       31.51978493      22.48254776       9.12788332
H       31.08746052      21.88523531       9.73824859
H       32.28549957      21.99790478       8.81960452
26
Properties=species:S:1:pos:R:3 config_id=posthoc_shell__MNSOL-CONN-XSQUKJJJFZCRTK__parent_00__6w molecule_id=MNSOL-CONN-XSQUKJJJFZCRTK regime=liquid_shell_size interaction_regime="strong donor/acceptor" canonical_smiles=NC(N)=O parent_snapshot_index=0 source_frame_index=0 n_solute_atoms=8 n_waters=6 shell_waters=6 nearest_water_distances_A=1.97305683;2.61155840;2.64722798;2.70885248;2.73282450;2.81948278 source_water_indices=312;856;874;415;472;450 pbc="F F F"
N       29.17056799      24.82500315       9.83112335
C       28.14829350      24.61397409       8.99019063
N       27.86973476      25.52089214       8.05327296
O       27.40519285      23.72373581       9.27183151
H       29.67314243      24.03066874      10.22380710
H       29.72859621      25.64286709       9.59142864
H       26.93801880      25.53069115       7.64149308
H       28.27693462      26.45393848       8.01631629
O       25.04128218      26.05314493       7.49187529
H       24.37207699      26.08233929       6.80810511
H       25.11761427      26.95893288       7.79179871
O       31.22703075      23.32499027      12.20059395
H       31.56337738      23.71543169      11.39395952
H       31.99855566      22.95073271      12.62592912
O       31.51978493      22.48254776       9.12788332
H       31.08746052      21.88523531       9.73824859
H       32.28549957      21.99790478       8.81960452
O       25.26807070      23.66111517      10.93516231
H       25.41023731      22.75741577      11.21685028
H       26.01780415      23.85823250      10.37366629
O       28.78725529      27.89812088      10.81455469
H       27.98515320      28.13013077      10.34654498
H       28.50406647      27.27076530      11.47973180
O       29.70376253      27.94895887       6.09835923
H       30.46561718      27.48519182       6.44582391
H       29.92186069      28.87583494       6.19615197
44
Properties=species:S:1:pos:R:3 config_id=posthoc_shell__MNSOL-CONN-XSQUKJJJFZCRTK__parent_00__12w molecule_id=MNSOL-CONN-XSQUKJJJFZCRTK regime=liquid_shell_size interaction_regime="strong donor/acceptor" canonical_smiles=NC(N)=O parent_snapshot_index=0 source_frame_index=0 n_solute_atoms=8 n_waters=12 shell_waters=12 nearest_water_distances_A=1.97305683;2.61155840;2.64722798;2.70885248;2.73282450;2.81948278;3.11055325;3.13957198;3.19240316;3.26933413;3.30515183;3.36009993 source_water_indices=312;856;874;415;472;450;195;311;1000;94;229;214 pbc="F F F"
N       29.17056799      24.82500315       9.83112335
C       28.14829350      24.61397409       8.99019063
N       27.86973476      25.52089214       8.05327296
O       27.40519285      23.72373581       9.27183151
H       29.67314243      24.03066874      10.22380710
H       29.72859621      25.64286709       9.59142864
H       26.93801880      25.53069115       7.64149308
H       28.27693462      26.45393848       8.01631629
O       25.04128218      26.05314493       7.49187529
H       24.37207699      26.08233929       6.80810511
H       25.11761427      26.95893288       7.79179871
O       31.22703075      23.32499027      12.20059395
H       31.56337738      23.71543169      11.39395952
H       31.99855566      22.95073271      12.62592912
O       31.51978493      22.48254776       9.12788332
H       31.08746052      21.88523531       9.73824859
H       32.28549957      21.99790478       8.81960452
O       25.26807070      23.66111517      10.93516231
H       25.41023731      22.75741577      11.21685028
H       26.01780415      23.85823250      10.37366629
O       28.78725529      27.89812088      10.81455469
H       27.98515320      28.13013077      10.34654498
H       28.50406647      27.27076530      11.47973180
O       29.70376253      27.94895887       6.09835923
H       30.46561718      27.48519182       6.44582391
H       29.92186069      28.87583494       6.19615197
O       27.31804609      23.97635221       4.97406900
H       28.13357592      24.41368341       5.21878600
H       27.59317398      23.25381517       4.40973163
O       32.60637522      26.15415812      10.73767543
H       33.20006371      25.59150934      10.24049401
H       32.97456741      26.17032290      11.62108064
O       31.88282967      27.01198339       7.67407715
H       32.45045662      26.29108667       7.94672370
H       31.64932251      27.45524406       8.48969162
O       29.94124651      20.87697506      11.04288101
H       29.62260962      21.61483526      11.56274796
H       29.17797327      20.58869600      10.54234028
O       31.14450216      28.62033844       9.82359946
H       30.25640249      28.43013525      10.12581825
H       31.71279669      28.22365999      10.48384190
O       27.73387432      20.38276672       9.41383719
H       27.56924152      21.24120951       9.02370334
H       27.49905348      19.75822449       8.72751415
11
Properties=species:S:1:pos:R:3 config_id=posthoc_shell__MNSOL-CONN-XSQUKJJJFZCRTK__parent_01__1w molecule_id=MNSOL-CONN-XSQUKJJJFZCRTK regime=liquid_shell_size interaction_regime="strong donor/acceptor" canonical_smiles=NC(N)=O parent_snapshot_index=1 source_frame_index=6 n_solute_atoms=8 n_waters=1 shell_waters=1 nearest_water_distances_A=1.85598922 source_water_indices=217 pbc="F F F"
N        0.80195338      11.03833795      12.55936265
C        1.32030278      11.91286087      13.37513924
N        2.34834388      12.64724493      12.94668794
O        1.16473898      11.71615720      14.56176996
H        0.32143775      10.29734015      13.06708217
H        0.80664143      11.13674641      11.54543638
H        2.52340734      13.44200253      13.55944037
H        2.43835628      12.76120663      11.93839073
O        2.76831001      15.09651780      14.36398864
H        1.86407447      14.99449492      14.66094255
H        3.27435315      15.20626187      15.16904116
17
Properties=species:S:1:pos:R:3 config_id=posthoc_shell__MNSOL-CONN-XSQUKJJJFZCRTK__parent_01__3w molecule_id=MNSOL-CONN-XSQUKJJJFZCRTK regime=liquid_shell_size interaction_regime="strong donor/acceptor" canonical_smiles=NC(N)=O parent_snapshot_index=1 source_frame_index=6 n_solute_atoms=8 n_waters=3 shell_waters=3 nearest_water_distances_A=1.85598922;2.17402319;2.54505143 source_water_indices=217;294;337 pbc="F F F"
N        0.80195338      11.03833795      12.55936265
C        1.32030278      11.91286087      13.37513924
N        2.34834388      12.64724493      12.94668794
O        1.16473898      11.71615720      14.56176996
H        0.32143775      10.29734015      13.06708217
H        0.80664143      11.13674641      11.54543638
H        2.52340734      13.44200253      13.55944037
H        2.43835628      12.76120663      11.93839073
O        2.76831001      15.09651780      14.36398864
H        1.86407447      14.99449492      14.66094255
H        3.27435315      15.20626187      15.16904116
O        2.88373500      12.24568367       9.87386882
H        2.32670650      13.00267220      10.05530477
H        2.62547761      11.96240783       8.99677753
O        1.45915598       8.85217667      14.82616901
H        1.78754523       8.76346111      15.72088838
H        1.42263636       9.79689717      14.67650056
26
Properties=species:S:1:pos:R:3 config_id=posthoc_shell__MNSOL-CONN-XSQUKJJJFZCRTK__parent_01__6w molecule_id=MNSOL-CONN-XSQUKJJJFZCRTK regime=liquid_shell_size interaction_regime="strong donor/acceptor" canonical_smiles=NC(N)=O parent_snapshot_index=1 source_frame_index=6 n_solute_atoms=8 n_waters=6 shell_waters=6 nearest_water_distances_A=1.85598922;2.17402319;2.54505143;2.84461111;3.01988172;3.04488660 source_water_indices=217;294;337;683;35;69 pbc="F F F"
N        0.80195338      11.03833795      12.55936265
C        1.32030278      11.91286087      13.37513924
N        2.34834388      12.64724493      12.94668794
O        1.16473898      11.71615720      14.56176996
H        0.32143775      10.29734015      13.06708217
H        0.80664143      11.13674641      11.54543638
H        2.52340734      13.44200253      13.55944037
H        2.43835628      12.76120663      11.93839073
O        2.76831001      15.09651780      14.36398864
H        1.86407447      14.99449492      14.66094255
H        3.27435315      15.20626187      15.16904116
O        2.88373500      12.24568367       9.87386882
H        2.32670650      13.00267220      10.05530477
H        2.62547761      11.96240783       8.99677753
O        1.45915598       8.85217667      14.82616901
H        1.78754523       8.76346111      15.72088838
H        1.42263636       9.79689717      14.67650056
O        1.18976630      14.52420235      10.08780122
H        0.51228121      14.84108090      10.68515658
H        1.81587413      15.24595976      10.03046989
O        5.22396684      11.83274627      11.23268485
H        5.70600748      12.64928937      11.10182166
H        4.31202114      12.06086636      11.05227232
O       -2.35275984      10.56498289      11.63586974
H       -1.82124138       9.79779899      11.42338514
H       -2.16540813      10.73871732      12.55833864
44
Properties=species:S:1:pos:R:3 config_id=posthoc_shell__MNSOL-CONN-XSQUKJJJFZCRTK__parent_01__12w molecule_id=MNSOL-CONN-XSQUKJJJFZCRTK regime=liquid_shell_size interaction_regime="strong donor/acceptor" canonical_smiles=NC(N)=O parent_snapshot_index=1 source_frame_index=6 n_solute_atoms=8 n_waters=12 shell_waters=12 nearest_water_distances_A=1.85598922;2.17402319;2.54505143;2.84461111;3.01988172;3.04488660;3.04528174;3.09546762;3.15788919;3.27814820;3.35907014;3.68806248 source_water_indices=217;294;337;683;35;69;638;376;624;811;951;115 pbc="F F F"
N        0.80195338      11.03833795      12.55936265
C        1.32030278      11.91286087      13.37513924
N        2.34834388      12.64724493      12.94668794
O        1.16473898      11.71615720      14.56176996
H        0.32143775      10.29734015      13.06708217
H        0.80664143      11.13674641      11.54543638
H        2.52340734      13.44200253      13.55944037
H        2.43835628      12.76120663      11.93839073
O        2.76831001      15.09651780      14.36398864
H        1.86407447      14.99449492      14.66094255
H        3.27435315      15.20626187      15.16904116
O        2.88373500      12.24568367       9.87386882
H        2.32670650      13.00267220      10.05530477
H        2.62547761      11.96240783       8.99677753
O        1.45915598       8.85217667      14.82616901
H        1.78754523       8.76346111      15.72088838
H        1.42263636       9.79689717      14.67650056
O        1.18976630      14.52420235      10.08780122
H        0.51228121      14.84108090      10.68515658
H        1.81587413      15.24595976      10.03046989
O        5.22396684      11.83274627      11.23268485
H        5.70600748      12.64928937      11.10182166
H        4.31202114      12.06086636      11.05227232
O       -2.35275984      10.56498289      11.63586974
H       -1.82124138       9.79779899      11.42338514
H       -2.16540813      10.73871732      12.55833864
O       -1.01145267      13.82748485      14.27852750
H       -1.45387411      12.98456788      14.17859077
H       -0.58952093      13.97882462      13.43277335
O        1.39409140      13.09179902      17.32526898
H        1.16374381      12.39515543      17.93997169
H        1.54943734      12.63885021      16.49645209
O       -2.42241621      11.24449492      14.31063652
H       -2.30442524      10.86423039      15.18110156
H       -3.37086916      11.26123428      14.18261290
O        0.23376008      15.42146206      12.30026960
H        0.82144596      16.14446282      12.51964927
H       -0.54613508      15.84609270      11.94294095
O       -0.41781902       7.87131608      10.86452484
H       -0.75733900       7.52936423      10.03746629
H       -0.72055101       7.24755049      11.52445078
O        0.45737479      15.37963748      15.92140675
H        0.72403096      14.84615207      16.67008519
H       -0.10805127      14.80437160      15.40604830
11
Properties=species:S:1:pos:R:3 config_id=posthoc_shell__MNSOL-CONN-XSQUKJJJFZCRTK__parent_02__1w molecule_id=MNSOL-CONN-XSQUKJJJFZCRTK regime=liquid_shell_size interaction_regime="strong donor/acceptor" canonical_smiles=NC(N)=O parent_snapshot_index=2 source_frame_index=12 n_solute_atoms=8 n_waters=1 shell_waters=1 nearest_water_distances_A=2.17827623 source_water_indices=972 pbc="F F F"
N       25.82044840       0.60933150       6.44411623
C       27.10664034       0.51957183       6.05146170
N       27.38487720       0.38771141       4.76949483
O       27.97038317       0.42884085       6.95292711
H       25.71547031       0.55364143       7.45586216
H       25.05398512       0.57564344       5.77392995
H       28.35895538       0.44990968       4.47784752
H       26.57458544       0.40776160       4.15242493
O       23.04987669      -0.01873333       5.16143262
H       22.71300316       0.81307530       4.82850105
H       22.48590946      -0.68231143       4.76414502
17
Properties=species:S:1:pos:R:3 config_id=posthoc_shell__MNSOL-CONN-XSQUKJJJFZCRTK__parent_02__3w molecule_id=MNSOL-CONN-XSQUKJJJFZCRTK regime=liquid_shell_size interaction_regime="strong donor/acceptor" canonical_smiles=NC(N)=O parent_snapshot_index=2 source_frame_index=12 n_solute_atoms=8 n_waters=3 shell_waters=3 nearest_water_distances_A=2.17827623;2.23254725;2.29203708 source_water_indices=972;463;907 pbc="F F F"
N       25.82044840       0.60933150       6.44411623
C       27.10664034       0.51957183       6.05146170
N       27.38487720       0.38771141       4.76949483
O       27.97038317       0.42884085       6.95292711
H       25.71547031       0.55364143       7.45586216
H       25.05398512       0.57564344       5.77392995
H       28.35895538       0.44990968       4.47784752
H       26.57458544       0.40776160       4.15242493
O       23.04987669      -0.01873333       5.16143262
H       22.71300316       0.81307530       4.82850105
H       22.48590946      -0.68231143       4.76414502
O       25.11473656       0.58489271       2.47262344
H       24.82789993       1.11845233       3.21375072
H       24.57347393      -0.20312503       2.52050072
O       24.74205494       2.57189840       4.69175637
H       25.08554220       3.28566462       4.15436924
H       24.84510422       2.87869394       5.59258342
26
Properties=species:S:1:pos:R:3 config_id=posthoc_shell__MNSOL-CONN-XSQUKJJJFZCRTK__parent_02__6w molecule_id=MNSOL-CONN-XSQUKJJJFZCRTK regime=liquid_shell_size interaction_regime="strong donor/acceptor" canonical_smiles=NC(N)=O parent_snapshot_index=2 source_frame_index=12 n_solute_atoms=8 n_waters=6 shell_waters=6 nearest_water_distances_A=2.17827623;2.23254725;2.29203708;2.41301416;2.43929190;2.55696065 source_water_indices=972;463;907;395;872;622 pbc="F F F"
N       25.82044840       0.60933150       6.44411623
C       27.10664034       0.51957183       6.05146170
N       27.38487720       0.38771141       4.76949483
O       27.97038317       0.42884085       6.95292711
H       25.71547031       0.55364143       7.45586216
H       25.05398512       0.57564344       5.77392995
H       28.35895538       0.44990968       4.47784752
H       26.57458544       0.40776160       4.15242493
O       23.04987669      -0.01873333       5.16143262
H       22.71300316       0.81307530       4.82850105
H       22.48590946      -0.68231143       4.76414502
O       25.11473656       0.58489271       2.47262344
H       24.82789993       1.11845233       3.21375072
H       24.57347393      -0.20312503       2.52050072
O       24.74205494       2.57189840       4.69175637
H       25.08554220       3.28566462       4.15436924
H       24.84510422       2.87869394       5.59258342
O       30.04963398       2.16165975       4.66265798
H       29.83725309       1.92276239       3.76040876
H       30.45277357       1.37530923       5.03057599
O       30.44405937      -0.63473701       5.13055563
H       31.19338989      -1.00905180       5.59383452
H       29.86963272      -1.38131618       4.96060342
O       23.49050522       0.82205497       8.68693173
H       22.70878792       0.27020078       8.71153533
H       23.61278057       1.02375016       7.75924623
44
Properties=species:S:1:pos:R:3 config_id=posthoc_shell__MNSOL-CONN-XSQUKJJJFZCRTK__parent_02__12w molecule_id=MNSOL-CONN-XSQUKJJJFZCRTK regime=liquid_shell_size interaction_regime="strong donor/acceptor" canonical_smiles=NC(N)=O parent_snapshot_index=2 source_frame_index=12 n_solute_atoms=8 n_waters=12 shell_waters=12 nearest_water_distances_A=2.17827623;2.23254725;2.29203708;2.41301416;2.43929190;2.55696065;2.85841338;2.96604335;3.00183978;3.12635367;3.13266315;3.17283986 source_water_indices=972;463;907;395;872;622;188;913;329;517;820;218 pbc="F F F"
N       25.82044840       0.60933150       6.44411623
C       27.10664034       0.51957183       6.05146170
N       27.38487720       0.38771141       4.76949483
O       27.97038317       0.42884085       6.95292711
H       25.71547031       0.55364143       7.45586216
H       25.05398512       0.57564344       5.77392995
H       28.35895538       0.44990968       4.47784752
H       26.57458544       0.40776160       4.15242493
O       23.04987669      -0.01873333       5.16143262
H       22.71300316       0.81307530       4.82850105
H       22.48590946      -0.68231143       4.76414502
O       25.11473656       0.58489271       2.47262344
H       24.82789993       1.11845233       3.21375072
H       24.57347393      -0.20312503       2.52050072
O       24.74205494       2.57189840       4.69175637
H       25.08554220       3.28566462       4.15436924
H       24.84510422       2.87869394       5.59258342
O       30.04963398       2.16165975       4.66265798
H       29.83725309       1.92276239       3.76040876
H       30.45277357       1.37530923       5.03057599
O       30.44405937      -0.63473701       5.13055563
H       31.19338989      -1.00905180       5.59383452
H       29.86963272      -1.38131618       4.96060342
O       23.49050522       0.82205497       8.68693173
H       22.70878792       0.27020078       8.71153533
H       23.61278057       1.02375016       7.75924623
O       25.09820700      -2.25618601       6.16034091
H       24.61073875      -1.45539999       5.96707880
H       24.90879059      -2.43611336       7.08119929
O       27.90640116      -2.22106457       8.28383684
H       27.31626749      -1.93086624       8.97936404
H       27.74031162      -1.61662340       7.56044507
O       30.44937134       0.17618179       8.62679183
H       29.73677635       0.17892838       7.98770428
H       30.67149878      -0.74862719       8.73458564
O       25.79601526      -1.53096437       9.78438497
H       24.86345053      -1.32124186       9.73367095
H       26.03278637      -1.35333538      10.69466949
O       28.52900743       3.48011047       6.51558161
H       28.98492813       3.13508809       5.74790478
H       28.38706493       2.71577358       7.07403839
O       25.54021835      -2.41907835       3.14944267
H       24.89656210      -2.89308548       2.62289137
H       25.35923243      -2.68887758       4.04982239
