25
Properties=species:S:1:pos:R:3:fragment_id:I:1 config_id=nonwater_contact__pros_azaaryl_sulfoxide__ch3cn molecule_id=pros_azaaryl_sulfoxide smiles=COc1nc(S(=O)C)cc(F)n1 perturbant=CH3CN n_solute_atoms=19 n_environment_atoms=6 environment_molecule_count=1 regime=mmff94s_contact source_config_id=nonwater_environment__pros_azaaryl_sulfoxide__ch3cn__equilibrium_like geometry_protocol=fixed_solute_MMFF94s_neighbour_optimization pbc="F F F"
C        3.17651484       1.35488885       0.39946798        0
O        1.91300562       1.48415014      -0.23962818        0
C        1.13971874       0.34845815      -0.14743627        0
N       -0.04567943       0.43584222      -0.75963935        0
C       -0.82488308      -0.65577074      -0.67645797        0
S       -2.37992174      -0.47230087      -1.54769839        0
O       -3.23271161      -1.62737381      -1.10533843        0
C       -2.96870904       1.00841351      -0.69220220        0
C       -0.47197492      -1.81039939      -0.03218182        0
C        0.76215736      -1.77239215       0.55360410        0
F        1.18670493      -2.86115596       1.21089413        0
N        1.59123028      -0.71762553       0.52010619        0
H        3.77597091       0.56098616      -0.05970864        0
H        3.71627687       2.29733540       0.26472412        0
H        3.06258256       1.18929449       1.47649839        0
H       -2.34912142       1.86674986      -0.96232667        0
H       -3.99739161       1.20170700      -1.00657950        0
H       -2.94781335       0.85219000       0.38930863        0
H       -1.10595590      -2.68299733       0.01716570        0
C        4.13963777      -2.57537846       2.45521926        0
C        4.93627588      -1.35525489       2.34004692        0
N        5.56727450      -0.38536089       2.24741620        0
H        3.90117222      -2.97810745       1.46652806        0
H        4.68439589      -3.34368474       3.01184423        0
H        3.20073797      -2.37782311       2.98058450        0
25
Properties=species:S:1:pos:R:3:fragment_id:I:1 config_id=nonwater_contact__pros_azaaryl_sulfoxide__ch3oh molecule_id=pros_azaaryl_sulfoxide smiles=COc1nc(S(=O)C)cc(F)n1 perturbant=CH3OH n_solute_atoms=19 n_environment_atoms=6 environment_molecule_count=1 regime=mmff94s_contact source_config_id=nonwater_environment__pros_azaaryl_sulfoxide__ch3oh__equilibrium_like geometry_protocol=fixed_solute_MMFF94s_neighbour_optimization pbc="F F F"
C        3.17651484       1.35488885       0.39946798        0
O        1.91300562       1.48415014      -0.23962818        0
C        1.13971874       0.34845815      -0.14743627        0
N       -0.04567943       0.43584222      -0.75963935        0
C       -0.82488308      -0.65577074      -0.67645797        0
S       -2.37992174      -0.47230087      -1.54769839        0
O       -3.23271161      -1.62737381      -1.10533843        0
C       -2.96870904       1.00841351      -0.69220220        0
C       -0.47197492      -1.81039939      -0.03218182        0
C        0.76215736      -1.77239215       0.55360410        0
F        1.18670493      -2.86115596       1.21089413        0
N        1.59123028      -0.71762553       0.52010619        0
H        3.77597091       0.56098616      -0.05970864        0
H        3.71627687       2.29733540       0.26472412        0
H        3.06258256       1.18929449       1.47649839        0
H       -2.34912142       1.86674986      -0.96232667        0
H       -3.99739161       1.20170700      -1.00657950        0
H       -2.94781335       0.85219000       0.38930863        0
H       -1.10595590      -2.68299733       0.01716570        0
C        4.13510749      -2.71415523       2.51540915        0
O        4.10985364      -1.39846037       1.99305168        0
H        4.03489584      -3.43312992       1.69861786        0
H        5.08752050      -2.87571744       3.02558386        0
H        3.31630286      -2.83968311       3.22808629        0
H        3.24631606      -1.29466561       1.54607234        0
23
Properties=species:S:1:pos:R:3:fragment_id:I:1 config_id=nonwater_contact__pros_azaaryl_sulfoxide__nh3 molecule_id=pros_azaaryl_sulfoxide smiles=COc1nc(S(=O)C)cc(F)n1 perturbant=NH3 n_solute_atoms=19 n_environment_atoms=4 environment_molecule_count=1 regime=mmff94s_contact source_config_id=nonwater_environment__pros_azaaryl_sulfoxide__nh3__equilibrium_like geometry_protocol=fixed_solute_MMFF94s_neighbour_optimization pbc="F F F"
C        3.17651484       1.35488885       0.39946798        0
O        1.91300562       1.48415014      -0.23962818        0
C        1.13971874       0.34845815      -0.14743627        0
N       -0.04567943       0.43584222      -0.75963935        0
C       -0.82488308      -0.65577074      -0.67645797        0
S       -2.37992174      -0.47230087      -1.54769839        0
O       -3.23271161      -1.62737381      -1.10533843        0
C       -2.96870904       1.00841351      -0.69220220        0
C       -0.47197492      -1.81039939      -0.03218182        0
C        0.76215736      -1.77239215       0.55360410        0
F        1.18670493      -2.86115596       1.21089413        0
N        1.59123028      -0.71762553       0.52010619        0
H        3.77597091       0.56098616      -0.05970864        0
H        3.71627687       2.29733540       0.26472412        0
H        3.06258256       1.18929449       1.47649839        0
H       -2.34912142       1.86674986      -0.96232667        0
H       -3.99739161       1.20170700      -1.00657950        0
H       -2.94781335       0.85219000       0.38930863        0
H       -1.10595590      -2.68299733       0.01716570        0
N        4.26665325      -1.57082997       2.12691944        0
H        3.97791156      -1.86787555       3.05841296        0
H        3.39246253      -1.35997864       1.63456216        0
H        4.62754365      -2.40938672       1.67318965        0
24
Properties=species:S:1:pos:R:3:fragment_id:I:1 config_id=nonwater_contact__pros_cyano_cyclic_acetal__ch3cn molecule_id=pros_cyano_cyclic_acetal smiles=COC1(C#N)CC(O)C1Cl perturbant=CH3CN n_solute_atoms=18 n_environment_atoms=6 environment_molecule_count=1 regime=mmff94s_contact source_config_id=nonwater_environment__pros_cyano_cyclic_acetal__ch3cn__equilibrium_like geometry_protocol=fixed_solute_MMFF94s_neighbour_optimization pbc="F F F"
C       -2.65598389      -0.00226191       0.22404731        0
O       -1.43982410      -0.54185535       0.73063575        0
C       -0.25573081      -0.44231724      -0.11444553        0
C       -0.40800086      -1.23828723      -1.32897479        0
N       -0.53076444      -1.83244665      -2.31893599        0
C        0.26958068       1.00596289      -0.36595692        0
C        1.70823395       0.48290146      -0.16323860        0
O        2.60045082       1.36774969       0.53860932        0
C        1.09115984      -0.68035026       0.65577328        0
Cl       1.93914931      -2.27344788       0.63422319        0
H       -3.40323963      -0.03446397       1.02128641        0
H       -2.51820104       1.03749348      -0.08471345        0
H       -3.01780967      -0.60011823      -0.61670985        0
H        0.06896770       1.42828302      -1.35592395        0
H       -0.05008189       1.73618985       0.38770047        0
H        2.16503984       0.15773634      -1.10727326        0
H        3.43228741       0.86913509       0.63955261        0
H        1.00476679      -0.43990310       1.72411120        0
C       -2.31903414      -0.53674727      -4.94889185        0
C       -2.36293948       0.45870377      -3.87800451        0
N       -2.39238377       1.24178795      -3.02069376        0
H       -1.28744052      -0.73303825      -5.25567570        0
H       -2.76299593      -1.48119344      -4.62062151        0
H       -2.87312276      -0.18795302      -5.82539312        0
24
Properties=species:S:1:pos:R:3:fragment_id:I:1 config_id=nonwater_contact__pros_cyano_cyclic_acetal__ch3oh molecule_id=pros_cyano_cyclic_acetal smiles=COC1(C#N)CC(O)C1Cl perturbant=CH3OH n_solute_atoms=18 n_environment_atoms=6 environment_molecule_count=1 regime=mmff94s_contact source_config_id=nonwater_environment__pros_cyano_cyclic_acetal__ch3oh__equilibrium_like geometry_protocol=fixed_solute_MMFF94s_neighbour_optimization pbc="F F F"
C       -2.65598389      -0.00226191       0.22404731        0
O       -1.43982410      -0.54185535       0.73063575        0
C       -0.25573081      -0.44231724      -0.11444553        0
C       -0.40800086      -1.23828723      -1.32897479        0
N       -0.53076444      -1.83244665      -2.31893599        0
C        0.26958068       1.00596289      -0.36595692        0
C        1.70823395       0.48290146      -0.16323860        0
O        2.60045082       1.36774969       0.53860932        0
C        1.09115984      -0.68035026       0.65577328        0
Cl       1.93914931      -2.27344788       0.63422319        0
H       -3.40323963      -0.03446397       1.02128641        0
H       -2.51820104       1.03749348      -0.08471345        0
H       -3.01780967      -0.60011823      -0.61670985        0
H        0.06896770       1.42828302      -1.35592395        0
H       -0.05008189       1.73618985       0.38770047        0
H        2.16503984       0.15773634      -1.10727326        0
H        3.43228741       0.86913509       0.63955261        0
H        1.00476679      -0.43990310       1.72411120        0
C       -2.61709933       1.16508267      -4.32748278        0
O       -2.18528665       0.58214218      -3.11074237        0
H       -3.42947100       0.56865625      -4.74981602        0
H       -2.97633560       2.17731945      -4.12790404        0
H       -1.77977916       1.20911319      -5.02820439        0
H       -1.87316932      -0.31885930      -3.33415973        0
22
Properties=species:S:1:pos:R:3:fragment_id:I:1 config_id=nonwater_contact__pros_cyano_cyclic_acetal__nh3 molecule_id=pros_cyano_cyclic_acetal smiles=COC1(C#N)CC(O)C1Cl perturbant=NH3 n_solute_atoms=18 n_environment_atoms=4 environment_molecule_count=1 regime=mmff94s_contact source_config_id=nonwater_environment__pros_cyano_cyclic_acetal__nh3__equilibrium_like geometry_protocol=fixed_solute_MMFF94s_neighbour_optimization pbc="F F F"
C       -2.65598389      -0.00226191       0.22404731        0
O       -1.43982410      -0.54185535       0.73063575        0
C       -0.25573081      -0.44231724      -0.11444553        0
C       -0.40800086      -1.23828723      -1.32897479        0
N       -0.53076444      -1.83244665      -2.31893599        0
C        0.26958068       1.00596289      -0.36595692        0
C        1.70823395       0.48290146      -0.16323860        0
O        2.60045082       1.36774969       0.53860932        0
C        1.09115984      -0.68035026       0.65577328        0
Cl       1.93914931      -2.27344788       0.63422319        0
H       -3.40323963      -0.03446397       1.02128641        0
H       -2.51820104       1.03749348      -0.08471345        0
H       -3.01780967      -0.60011823      -0.61670985        0
H        0.06896770       1.42828302      -1.35592395        0
H       -0.05008189       1.73618985       0.38770047        0
H        2.16503984       0.15773634      -1.10727326        0
H        3.43228741       0.86913509       0.63955261        0
H        1.00476679      -0.43990310       1.72411120        0
N       -2.26943888       0.78227394      -3.26340588        0
H       -1.81393308       1.33687488      -3.98926160        0
H       -1.88679384      -0.16299390      -3.38215022        0
H       -3.24240106       0.70391970      -3.56197176        0
21
Properties=species:S:1:pos:R:3:fragment_id:I:1 config_id=nonwater_contact__pros_halogen_oxazinanone__ch3cn molecule_id=pros_halogen_oxazinanone smiles=O=C1N(CC#N)C(F)(Cl)CO1 perturbant=CH3CN n_solute_atoms=15 n_environment_atoms=6 environment_molecule_count=1 regime=mmff94s_contact source_config_id=nonwater_environment__pros_halogen_oxazinanone__ch3cn__equilibrium_like geometry_protocol=fixed_solute_MMFF94s_neighbour_optimization pbc="F F F"
O        0.09696843       2.37260867      -0.90555753        0
C       -0.42330379       1.33250295      -0.54248844        0
N        0.21458936       0.14470283      -0.36526438        0
C        1.64753650      -0.04130838      -0.41681878        0
C        2.27202520       0.07208063       0.91301936        0
N        2.75393138       0.15036163       1.96634328        0
C       -0.69381380      -0.86558653       0.03016824        0
F       -0.23409045      -1.51833203       1.11867690        0
Cl      -0.91052238      -1.99290144      -1.31466412        0
C       -1.95415603      -0.08681462       0.34388367        0
O       -1.75126834       1.20781405      -0.24647931        0
H        1.86325101      -1.01750017      -0.86244581        0
H        2.07518342       0.72358592      -1.07461670        0
H       -2.09002240       0.05012124       1.42208005        0
H       -2.86630811      -0.53133475      -0.06583641        0
C        6.29969212      -0.63759431       1.19083973        0
C        5.47353523      -0.80952311      -0.00385924        0
N        4.79998088      -0.93962597      -0.94142640        0
H        6.24583970       0.39255232       1.55525780        0
H        5.96384194      -1.30030952       1.99390418        0
H        7.34720724      -0.86793759       0.97529873        0
21
Properties=species:S:1:pos:R:3:fragment_id:I:1 config_id=nonwater_contact__pros_halogen_oxazinanone__ch3oh molecule_id=pros_halogen_oxazinanone smiles=O=C1N(CC#N)C(F)(Cl)CO1 perturbant=CH3OH n_solute_atoms=15 n_environment_atoms=6 environment_molecule_count=1 regime=mmff94s_contact source_config_id=nonwater_environment__pros_halogen_oxazinanone__ch3oh__equilibrium_like geometry_protocol=fixed_solute_MMFF94s_neighbour_optimization pbc="F F F"
O        0.09696843       2.37260867      -0.90555753        0
C       -0.42330379       1.33250295      -0.54248844        0
N        0.21458936       0.14470283      -0.36526438        0
C        1.64753650      -0.04130838      -0.41681878        0
C        2.27202520       0.07208063       0.91301936        0
N        2.75393138       0.15036163       1.96634328        0
C       -0.69381380      -0.86558653       0.03016824        0
F       -0.23409045      -1.51833203       1.11867690        0
Cl      -0.91052238      -1.99290144      -1.31466412        0
C       -1.95415603      -0.08681462       0.34388367        0
O       -1.75126834       1.20781405      -0.24647931        0
H        1.86325101      -1.01750017      -0.86244581        0
H        2.07518342       0.72358592      -1.07461670        0
H       -2.09002240       0.05012124       1.42208005        0
H       -2.86630811      -0.53133475      -0.06583641        0
C       -0.07639927       2.49746211       2.89348143        0
O       -0.07404638       1.08480756       2.76622015        0
H        0.71495765       2.92114084       2.27038765        0
H       -1.04382940       2.88065170       2.56077030        0
H        0.08211213       2.76946467       3.93975396        0
H        0.80790355       0.78660683       3.07092456        0
19
Properties=species:S:1:pos:R:3:fragment_id:I:1 config_id=nonwater_contact__pros_halogen_oxazinanone__nh3 molecule_id=pros_halogen_oxazinanone smiles=O=C1N(CC#N)C(F)(Cl)CO1 perturbant=NH3 n_solute_atoms=15 n_environment_atoms=4 environment_molecule_count=1 regime=mmff94s_contact source_config_id=nonwater_environment__pros_halogen_oxazinanone__nh3__equilibrium_like geometry_protocol=fixed_solute_MMFF94s_neighbour_optimization pbc="F F F"
O        0.09696843       2.37260867      -0.90555753        0
C       -0.42330379       1.33250295      -0.54248844        0
N        0.21458936       0.14470283      -0.36526438        0
C        1.64753650      -0.04130838      -0.41681878        0
C        2.27202520       0.07208063       0.91301936        0
N        2.75393138       0.15036163       1.96634328        0
C       -0.69381380      -0.86558653       0.03016824        0
F       -0.23409045      -1.51833203       1.11867690        0
Cl      -0.91052238      -1.99290144      -1.31466412        0
C       -1.95415603      -0.08681462       0.34388367        0
O       -1.75126834       1.20781405      -0.24647931        0
H        1.86325101      -1.01750017      -0.86244581        0
H        2.07518342       0.72358592      -1.07461670        0
H       -2.09002240       0.05012124       1.42208005        0
H       -2.86630811      -0.53133475      -0.06583641        0
N        4.75890213      -0.65603661      -1.08689352        0
H        5.18380381      -1.53303019      -1.39366489        0
H        5.26119518       0.07185369      -1.59905762        0
H        5.06287756      -0.54571585      -0.11511402        0
24
Properties=species:S:1:pos:R:3:fragment_id:I:1 config_id=nonwater_contact__pros_heteroaryl_amide__ch3cn molecule_id=pros_heteroaryl_amide smiles=O=C(N(C)C(F)Cl)c1nocc1 perturbant=CH3CN n_solute_atoms=18 n_environment_atoms=6 environment_molecule_count=1 regime=mmff94s_contact source_config_id=nonwater_environment__pros_heteroaryl_amide__ch3cn__equilibrium_like geometry_protocol=fixed_solute_MMFF94s_neighbour_optimization pbc="F F F"
O       -0.09406592      -2.06393236       0.13860694        0
C       -0.07456713      -0.83185540       0.09577631        0
N       -1.25836680      -0.11256570      -0.02418033        0
C       -1.37236909       1.31456697      -0.27491368        0
C       -2.48346197      -0.85481093       0.09985776        0
F       -3.42244077      -0.08190665       0.70746810        0
Cl      -3.05164004      -1.28240579      -1.52649655        0
C        1.21697731      -0.13127167       0.18389894        0
N        1.35905457       1.15281781       0.55555737        0
O        2.71576861       1.41253724       0.54727285        0
C        3.38857838       0.29087847       0.20035922        0
C        2.49530061      -0.71904214      -0.03089615        0
H       -2.31757081       1.53864951      -0.77899449        0
H       -1.34442132       1.84250132       0.68237121        0
H       -0.56469586       1.66180640      -0.92329719        0
H       -2.36828283      -1.77311088       0.68255786        0
H        4.46477407       0.37639853       0.17234797        0
H        2.71142900      -1.73925472      -0.31228770        0
C       -0.50909112      -3.64358141      -3.07696524        0
C        0.35153175      -2.46299152      -3.13376529        0
N        1.03617474      -1.52626221      -3.17326079        0
H        0.00180657      -4.51621371      -3.49458832        0
H       -0.78667107      -3.87556053      -2.04470748        0
H       -1.42778750      -3.48281601      -3.64872271        0
24
Properties=species:S:1:pos:R:3:fragment_id:I:1 config_id=nonwater_contact__pros_heteroaryl_amide__ch3oh molecule_id=pros_heteroaryl_amide smiles=O=C(N(C)C(F)Cl)c1nocc1 perturbant=CH3OH n_solute_atoms=18 n_environment_atoms=6 environment_molecule_count=1 regime=mmff94s_contact source_config_id=nonwater_environment__pros_heteroaryl_amide__ch3oh__equilibrium_like geometry_protocol=fixed_solute_MMFF94s_neighbour_optimization pbc="F F F"
O       -0.09406592      -2.06393236       0.13860694        0
C       -0.07456713      -0.83185540       0.09577631        0
N       -1.25836680      -0.11256570      -0.02418033        0
C       -1.37236909       1.31456697      -0.27491368        0
C       -2.48346197      -0.85481093       0.09985776        0
F       -3.42244077      -0.08190665       0.70746810        0
Cl      -3.05164004      -1.28240579      -1.52649655        0
C        1.21697731      -0.13127167       0.18389894        0
N        1.35905457       1.15281781       0.55555737        0
O        2.71576861       1.41253724       0.54727285        0
C        3.38857838       0.29087847       0.20035922        0
C        2.49530061      -0.71904214      -0.03089615        0
H       -2.31757081       1.53864951      -0.77899449        0
H       -1.34442132       1.84250132       0.68237121        0
H       -0.56469586       1.66180640      -0.92329719        0
H       -2.36828283      -1.77311088       0.68255786        0
H        4.46477407       0.37639853       0.17234797        0
H        2.71142900      -1.73925472      -0.31228770        0
C        0.91524146       4.57233195       1.60602934        0
O        0.66484463       3.97521826       0.34697564        0
H        1.99332363       4.62898917       1.77530307        0
H        0.49385536       5.58023297       1.61145942        0
H        0.44299043       3.97780435       2.39196546        0
H        1.06085654       3.08002359       0.38561369        0
22
Properties=species:S:1:pos:R:3:fragment_id:I:1 config_id=nonwater_contact__pros_heteroaryl_amide__nh3 molecule_id=pros_heteroaryl_amide smiles=O=C(N(C)C(F)Cl)c1nocc1 perturbant=NH3 n_solute_atoms=18 n_environment_atoms=4 environment_molecule_count=1 regime=mmff94s_contact source_config_id=nonwater_environment__pros_heteroaryl_amide__nh3__altered_orientation geometry_protocol=fixed_solute_MMFF94s_neighbour_optimization pbc="F F F"
O       -0.09406592      -2.06393236       0.13860694        0
C       -0.07456713      -0.83185540       0.09577631        0
N       -1.25836680      -0.11256570      -0.02418033        0
C       -1.37236909       1.31456697      -0.27491368        0
C       -2.48346197      -0.85481093       0.09985776        0
F       -3.42244077      -0.08190665       0.70746810        0
Cl      -3.05164004      -1.28240579      -1.52649655        0
C        1.21697731      -0.13127167       0.18389894        0
N        1.35905457       1.15281781       0.55555737        0
O        2.71576861       1.41253724       0.54727285        0
C        3.38857838       0.29087847       0.20035922        0
C        2.49530061      -0.71904214      -0.03089615        0
H       -2.31757081       1.53864951      -0.77899449        0
H       -1.34442132       1.84250132       0.68237121        0
H       -0.56469586       1.66180640      -0.92329719        0
H       -2.36828283      -1.77311088       0.68255786        0
H        4.46477407       0.37639853       0.17234797        0
H        2.71142900      -1.73925472      -0.31228770        0
N        0.59487825       4.22450307       0.35315767        0
H        1.33794569       4.71165279      -0.14604445        0
H        0.61578011       4.59157351       1.30392053        0
H        0.92617754       3.25628878       0.43899208        0
22
Properties=species:S:1:pos:R:3:fragment_id:I:1 config_id=nonwater_contact__pros_isoxazole_thioether__ch3cn molecule_id=pros_isoxazole_thioether smiles=CSC1=NOC(C(O)F)=C1Cl perturbant=CH3CN n_solute_atoms=16 n_environment_atoms=6 environment_molecule_count=1 regime=mmff94s_contact source_config_id=nonwater_environment__pros_isoxazole_thioether__ch3cn__equilibrium_like geometry_protocol=fixed_solute_MMFF94s_neighbour_optimization pbc="F F F"
C       -3.28275780      -1.21645338      -0.60787425        0
S       -2.49996139       0.40996858      -0.56601707        0
C       -0.88630158       0.01838674      -0.01088239        0
N       -0.52096888      -1.22751609       0.30992265        0
O        0.80516923      -1.13690543       0.69692211        0
C        1.21781585       0.15748822       0.60862337        0
C        2.60759504       0.42657488       0.99631261        0
O        3.30520141       0.86945312      -0.14894365        0
F        2.69118196       1.45098725       1.88167702        0
C        0.17531731       0.93370255       0.16438718        0
Cl       0.17074555       2.60782426      -0.10869211        0
H       -3.30355340      -1.66429826       0.38961266        0
H       -4.31411518      -1.10674661      -0.95438340        0
H       -2.75911251      -1.88269675      -1.29919738        0
H        3.11345722      -0.44517153       1.41943222        0
H        3.48028718       1.80540244       0.05053706        0
C        2.51864204       5.90290048       0.71443885        0
C        3.23306690       4.66733025       0.39734263        0
N        3.79091332       3.68042702       0.14556648        0
H        3.22025228       6.70726856       0.95427373        0
H        1.90694471       6.22621376      -0.13302777        0
H        1.85824310       5.75952047       1.57482276        0
22
Properties=species:S:1:pos:R:3:fragment_id:I:1 config_id=nonwater_contact__pros_isoxazole_thioether__ch3oh molecule_id=pros_isoxazole_thioether smiles=CSC1=NOC(C(O)F)=C1Cl perturbant=CH3OH n_solute_atoms=16 n_environment_atoms=6 environment_molecule_count=1 regime=mmff94s_contact source_config_id=nonwater_environment__pros_isoxazole_thioether__ch3oh__equilibrium_like geometry_protocol=fixed_solute_MMFF94s_neighbour_optimization pbc="F F F"
C       -3.28275780      -1.21645338      -0.60787425        0
S       -2.49996139       0.40996858      -0.56601707        0
C       -0.88630158       0.01838674      -0.01088239        0
N       -0.52096888      -1.22751609       0.30992265        0
O        0.80516923      -1.13690543       0.69692211        0
C        1.21781585       0.15748822       0.60862337        0
C        2.60759504       0.42657488       0.99631261        0
O        3.30520141       0.86945312      -0.14894365        0
F        2.69118196       1.45098725       1.88167702        0
C        0.17531731       0.93370255       0.16438718        0
Cl       0.17074555       2.60782426      -0.10869211        0
H       -3.30355340      -1.66429826       0.38961266        0
H       -4.31411518      -1.10674661      -0.95438340        0
H       -2.75911251      -1.88269675      -1.29919738        0
H        3.11345722      -0.44517153       1.41943222        0
H        3.48028718       1.80540244       0.05053706        0
C        3.40306413       4.51858546       0.86219738        0
O        3.84000291       3.49508278      -0.01910378        0
H        2.64188850       5.12540992       0.36590685        0
H        2.97525680       4.05998215       1.75639269        0
H        4.25452764       5.14172508       1.14611830        0
H        4.21068629       3.94639930      -0.80028201        0
20
Properties=species:S:1:pos:R:3:fragment_id:I:1 config_id=nonwater_contact__pros_isoxazole_thioether__nh3 molecule_id=pros_isoxazole_thioether smiles=CSC1=NOC(C(O)F)=C1Cl perturbant=NH3 n_solute_atoms=16 n_environment_atoms=4 environment_molecule_count=1 regime=mmff94s_contact source_config_id=nonwater_environment__pros_isoxazole_thioether__nh3__equilibrium_like geometry_protocol=fixed_solute_MMFF94s_neighbour_optimization pbc="F F F"
C       -3.28275780      -1.21645338      -0.60787425        0
S       -2.49996139       0.40996858      -0.56601707        0
C       -0.88630158       0.01838674      -0.01088239        0
N       -0.52096888      -1.22751609       0.30992265        0
O        0.80516923      -1.13690543       0.69692211        0
C        1.21781585       0.15748822       0.60862337        0
C        2.60759504       0.42657488       0.99631261        0
O        3.30520141       0.86945312      -0.14894365        0
F        2.69118196       1.45098725       1.88167702        0
C        0.17531731       0.93370255       0.16438718        0
Cl       0.17074555       2.60782426      -0.10869211        0
H       -3.30355340      -1.66429826       0.38961266        0
H       -4.31411518      -1.10674661      -0.95438340        0
H       -2.75911251      -1.88269675      -1.29919738        0
H        3.11345722      -0.44517153       1.41943222        0
H        3.48028718       1.80540244       0.05053706        0
N        1.74160485      -1.40609662       3.72930368        0
H        0.91684968      -1.80497031       3.27583707        0
H        2.17217510      -2.18125717       4.23434239        0
H        1.37888472      -0.78143098       4.45030807        0
24
Properties=species:S:1:pos:R:3:fragment_id:I:1 config_id=nonwater_contact__pros_polyfunctional_oxane__ch3cn molecule_id=pros_polyfunctional_oxane smiles=N#CC1(O)COC(CCl)C1F perturbant=CH3CN n_solute_atoms=18 n_environment_atoms=6 environment_molecule_count=1 regime=mmff94s_contact source_config_id=nonwater_environment__pros_polyfunctional_oxane__ch3cn__equilibrium_like geometry_protocol=fixed_solute_MMFF94s_neighbour_optimization pbc="F F F"
N       -3.21252295       1.70658089      -0.38336507        0
C       -2.37639760       0.90906755      -0.27117256        0
C       -1.30786399      -0.08567677      -0.12234304        0
O       -1.80385321      -1.29843708       0.47719741        0
C       -0.63916449      -0.41011482      -1.45654125        0
O        0.74477495      -0.73462730      -1.18483609        0
C        0.99689717      -0.44906041       0.20483658        0
C        2.40141066       0.10439133       0.42107852        0
Cl       2.66076139       1.67209707      -0.39224942        0
C       -0.13476680       0.44710115       0.67896017        0
F       -0.35129965       0.28550860       2.00988781        0
H       -1.98938283      -1.09068137       1.41376189        0
H       -0.63137307       0.44289773      -2.14465680        0
H       -1.09575806      -1.26666412      -1.96271654        0
H        0.94272026      -1.40850284       0.73588718        0
H        2.60314818       0.25015232       1.48628376        0
H        3.14721713      -0.58233298       0.00995842        0
H        0.04545291       1.50830103       0.48002903        0
C       -5.29267810       1.32483420       2.62943225        0
C       -4.17426666       0.38606933       2.71331948        0
N       -3.27954344      -0.35371233       2.76116377        0
H       -5.90196332       1.12480931       1.74306279        0
H       -5.93615155       1.24224359       3.51029466        0
H       -4.93083971       2.35545207       2.56786060        0
24
Properties=species:S:1:pos:R:3:fragment_id:I:1 config_id=nonwater_contact__pros_polyfunctional_oxane__ch3oh molecule_id=pros_polyfunctional_oxane smiles=N#CC1(O)COC(CCl)C1F perturbant=CH3OH n_solute_atoms=18 n_environment_atoms=6 environment_molecule_count=1 regime=mmff94s_contact source_config_id=nonwater_environment__pros_polyfunctional_oxane__ch3oh__equilibrium_like geometry_protocol=fixed_solute_MMFF94s_neighbour_optimization pbc="F F F"
N       -3.21252295       1.70658089      -0.38336507        0
C       -2.37639760       0.90906755      -0.27117256        0
C       -1.30786399      -0.08567677      -0.12234304        0
O       -1.80385321      -1.29843708       0.47719741        0
C       -0.63916449      -0.41011482      -1.45654125        0
O        0.74477495      -0.73462730      -1.18483609        0
C        0.99689717      -0.44906041       0.20483658        0
C        2.40141066       0.10439133       0.42107852        0
Cl       2.66076139       1.67209707      -0.39224942        0
C       -0.13476680       0.44710115       0.67896017        0
F       -0.35129965       0.28550860       2.00988781        0
H       -1.98938283      -1.09068137       1.41376189        0
H       -0.63137307       0.44289773      -2.14465680        0
H       -1.09575806      -1.26666412      -1.96271654        0
H        0.94272026      -1.40850284       0.73588718        0
H        2.60314818       0.25015232       1.48628376        0
H        3.14721713      -0.58233298       0.00995842        0
H        0.04545291       1.50830103       0.48002903        0
C       -0.01316462       4.08532890      -2.19620540        0
O       -0.71020676       3.05795643      -1.51316018        0
H       -0.01131652       4.99191230      -1.58632536        0
H        1.01571554       3.76272872      -2.37021502        0
H       -0.49832404       4.27910732      -3.15596070        0
H       -1.63016018       3.37017379      -1.40120064        0
22
Properties=species:S:1:pos:R:3:fragment_id:I:1 config_id=nonwater_contact__pros_polyfunctional_oxane__nh3 molecule_id=pros_polyfunctional_oxane smiles=N#CC1(O)COC(CCl)C1F perturbant=NH3 n_solute_atoms=18 n_environment_atoms=4 environment_molecule_count=1 regime=mmff94s_contact source_config_id=nonwater_environment__pros_polyfunctional_oxane__nh3__equilibrium_like geometry_protocol=fixed_solute_MMFF94s_neighbour_optimization pbc="F F F"
N       -3.21252295       1.70658089      -0.38336507        0
C       -2.37639760       0.90906755      -0.27117256        0
C       -1.30786399      -0.08567677      -0.12234304        0
O       -1.80385321      -1.29843708       0.47719741        0
C       -0.63916449      -0.41011482      -1.45654125        0
O        0.74477495      -0.73462730      -1.18483609        0
C        0.99689717      -0.44906041       0.20483658        0
C        2.40141066       0.10439133       0.42107852        0
Cl       2.66076139       1.67209707      -0.39224942        0
C       -0.13476680       0.44710115       0.67896017        0
F       -0.35129965       0.28550860       2.00988781        0
H       -1.98938283      -1.09068137       1.41376189        0
H       -0.63137307       0.44289773      -2.14465680        0
H       -1.09575806      -1.26666412      -1.96271654        0
H        0.94272026      -1.40850284       0.73588718        0
H        2.60314818       0.25015232       1.48628376        0
H        3.14721713      -0.58233298       0.00995842        0
H        0.04545291       1.50830103       0.48002903        0
N       -0.56075478       3.21659277      -1.61978505        0
H       -0.43411879       3.35792592      -2.62327600        0
H       -1.54019218       3.45806006      -1.43887247        0
H       -0.01521976       3.96020567      -1.18078125        0
27
Properties=species:S:1:pos:R:3:fragment_id:I:1 config_id=nonwater_contact__pros_sulfonyl_piperidinol__ch3cn molecule_id=pros_sulfonyl_piperidinol smiles=CS(=O)(=O)N1CC(F)C(O)C1 perturbant=CH3CN n_solute_atoms=21 n_environment_atoms=6 environment_molecule_count=1 regime=mmff94s_contact source_config_id=nonwater_environment__pros_sulfonyl_piperidinol__ch3cn__altered_orientation geometry_protocol=fixed_solute_MMFF94s_neighbour_optimization pbc="F F F"
C        2.83289071       0.33093212       0.24918190        0
S        1.26934887       1.18655646       0.26223666        0
O        1.41247418       2.41485279      -0.48612286        0
O        0.72293269       1.18888696       1.60420872        0
N        0.27509504       0.14941367      -0.63803698        0
C        0.03566807      -1.22042285      -0.05758706        0
C       -1.47185622      -1.45033373      -0.09970460        0
F       -1.80581718      -2.02530384      -1.28829918        0
C       -2.04689322      -0.04941711      -0.04160861        0
O       -2.06736389       0.44652247       1.29934007        0
C       -1.08195402       0.72568406      -0.93834555        0
H        2.73063839      -0.62478347       0.76454485        0
H        3.14796662       0.19022734      -0.78633015        0
H        3.55831272       0.95589567       0.77483809        0
H        0.38894034      -1.27609730       0.97664886        0
H        0.57283941      -1.96094693      -0.65721794        0
H       -1.80963051      -2.10558922       0.70789620        0
H       -3.06736606      -0.00675422      -0.43276768        0
H       -1.17578289       0.78232982       1.53770647        0
H       -1.29023822       0.54610143      -1.99915208        0
H       -1.13020481       1.80224587      -0.75142912        0
C        0.55020667       0.20443692       4.74843474        0
C        1.19513979      -0.86427950       3.98580765        0
N        1.70206902      -1.70712684       3.36800309        0
H        1.13271721       1.12871560       4.69157027        0
H       -0.45181577       0.40880016       4.35954810        0
H        0.45554181      -0.07338897       5.80231311        0
27
Properties=species:S:1:pos:R:3:fragment_id:I:1 config_id=nonwater_contact__pros_sulfonyl_piperidinol__ch3oh molecule_id=pros_sulfonyl_piperidinol smiles=CS(=O)(=O)N1CC(F)C(O)C1 perturbant=CH3OH n_solute_atoms=21 n_environment_atoms=6 environment_molecule_count=1 regime=mmff94s_contact source_config_id=nonwater_environment__pros_sulfonyl_piperidinol__ch3oh__equilibrium_like geometry_protocol=fixed_solute_MMFF94s_neighbour_optimization pbc="F F F"
C        2.83289071       0.33093212       0.24918190        0
S        1.26934887       1.18655646       0.26223666        0
O        1.41247418       2.41485279      -0.48612286        0
O        0.72293269       1.18888696       1.60420872        0
N        0.27509504       0.14941367      -0.63803698        0
C        0.03566807      -1.22042285      -0.05758706        0
C       -1.47185622      -1.45033373      -0.09970460        0
F       -1.80581718      -2.02530384      -1.28829918        0
C       -2.04689322      -0.04941711      -0.04160861        0
O       -2.06736389       0.44652247       1.29934007        0
C       -1.08195402       0.72568406      -0.93834555        0
H        2.73063839      -0.62478347       0.76454485        0
H        3.14796662       0.19022734      -0.78633015        0
H        3.55831272       0.95589567       0.77483809        0
H        0.38894034      -1.27609730       0.97664886        0
H        0.57283941      -1.96094693      -0.65721794        0
H       -1.80963051      -2.10558922       0.70789620        0
H       -3.06736606      -0.00675422      -0.43276768        0
H       -1.17578289       0.78232982       1.53770647        0
H       -1.29023822       0.54610143      -1.99915208        0
H       -1.13020481       1.80224587      -0.75142912        0
C        4.22430886       4.38169183      -1.71317022        0
O        3.88045871       3.04692072      -1.38874018        0
H        3.97814056       5.03634037      -0.87354716        0
H        5.29750103       4.43394819      -1.91078309        0
H        3.67587163       4.69346850      -2.60542334        0
H        2.91197910       3.05095740      -1.22040036        0
25
Properties=species:S:1:pos:R:3:fragment_id:I:1 config_id=nonwater_contact__pros_sulfonyl_piperidinol__nh3 molecule_id=pros_sulfonyl_piperidinol smiles=CS(=O)(=O)N1CC(F)C(O)C1 perturbant=NH3 n_solute_atoms=21 n_environment_atoms=4 environment_molecule_count=1 regime=mmff94s_contact source_config_id=nonwater_environment__pros_sulfonyl_piperidinol__nh3__equilibrium_like geometry_protocol=fixed_solute_MMFF94s_neighbour_optimization pbc="F F F"
C        2.83289071       0.33093212       0.24918190        0
S        1.26934887       1.18655646       0.26223666        0
O        1.41247418       2.41485279      -0.48612286        0
O        0.72293269       1.18888696       1.60420872        0
N        0.27509504       0.14941367      -0.63803698        0
C        0.03566807      -1.22042285      -0.05758706        0
C       -1.47185622      -1.45033373      -0.09970460        0
F       -1.80581718      -2.02530384      -1.28829918        0
C       -2.04689322      -0.04941711      -0.04160861        0
O       -2.06736389       0.44652247       1.29934007        0
C       -1.08195402       0.72568406      -0.93834555        0
H        2.73063839      -0.62478347       0.76454485        0
H        3.14796662       0.19022734      -0.78633015        0
H        3.55831272       0.95589567       0.77483809        0
H        0.38894034      -1.27609730       0.97664886        0
H        0.57283941      -1.96094693      -0.65721794        0
H       -1.80963051      -2.10558922       0.70789620        0
H       -3.06736606      -0.00675422      -0.43276768        0
H       -1.17578289       0.78232982       1.53770647        0
H       -1.29023822       0.54610143      -1.99915208        0
H       -1.13020481       1.80224587      -0.75142912        0
N        4.12110289       3.11013626      -1.38890267        0
H        4.17032115       3.27589335      -2.39403068        0
H        3.11113053       3.07110625      -1.18735298        0
H        4.42902580       3.98159937      -0.95739233        0
17
Properties=species:S:1:pos:R:3:fragment_id:I:1 config_id=nonwater_contact__prospective_diverse_01__ch3cn molecule_id=prospective_diverse_01 smiles=NCC(=O)N perturbant=CH3CN n_solute_atoms=11 n_environment_atoms=6 environment_molecule_count=1 regime=mmff94s_contact source_config_id=nonwater_environment__prospective_diverse_01__ch3cn__equilibrium_like geometry_protocol=fixed_solute_MMFF94s_neighbour_optimization pbc="F F F"
N       -1.01935812       0.99614502       0.08786156        0
C       -0.77266571      -0.46118841       0.14245376        0
C        0.69639084      -0.78343811      -0.14435695        0
O        1.08690947      -1.87926205      -0.53026822        0
N        1.56472812       0.23999885       0.10511018        0
H       -2.00730605       1.15685685       0.28614860        0
H       -0.88241045       1.29988146      -0.87795359        0
H       -1.39721767      -0.96827069      -0.59911900        0
H       -1.01585707      -0.83659750       1.14083420        0
H        1.19210486       1.12655508       0.42773841        0
H        2.55468177       0.10931950      -0.03844896        0
C        1.06120472      -1.17410196      -3.84537126        0
C        0.20227396      -0.06009728      -3.44377617        0
N       -0.47894185       0.81841333      -3.10667554        0
H        2.04543322      -1.09527975      -3.37424842        0
H        0.61886445      -2.13087541      -3.55255834        0
H        1.20337400      -1.18315228      -4.93004459        0
17
Properties=species:S:1:pos:R:3:fragment_id:I:1 config_id=nonwater_contact__prospective_diverse_01__ch3oh molecule_id=prospective_diverse_01 smiles=NCC(=O)N perturbant=CH3OH n_solute_atoms=11 n_environment_atoms=6 environment_molecule_count=1 regime=mmff94s_contact source_config_id=nonwater_environment__prospective_diverse_01__ch3oh__altered_orientation geometry_protocol=fixed_solute_MMFF94s_neighbour_optimization pbc="F F F"
N       -1.01935812       0.99614502       0.08786156        0
C       -0.77266571      -0.46118841       0.14245376        0
C        0.69639084      -0.78343811      -0.14435695        0
O        1.08690947      -1.87926205      -0.53026822        0
N        1.56472812       0.23999885       0.10511018        0
H       -2.00730605       1.15685685       0.28614860        0
H       -0.88241045       1.29988146      -0.87795359        0
H       -1.39721767      -0.96827069      -0.59911900        0
H       -1.01585707      -0.83659750       1.14083420        0
H        1.19210486       1.12655508       0.42773841        0
H        2.55468177       0.10931950      -0.03844896        0
C       -0.00298615      -5.15508377      -1.23453630        0
O       -0.60991128      -3.87862598      -1.15573905        0
H        0.50725525      -5.37560425      -0.29368570        0
H       -0.77649838      -5.90600418      -1.41161382        0
H        0.71172246      -5.16940541      -2.06106041        0
H        0.12298817      -3.24272749      -0.99672138        0
15
Properties=species:S:1:pos:R:3:fragment_id:I:1 config_id=nonwater_contact__prospective_diverse_01__nh3 molecule_id=prospective_diverse_01 smiles=NCC(=O)N perturbant=NH3 n_solute_atoms=11 n_environment_atoms=4 environment_molecule_count=1 regime=mmff94s_contact source_config_id=nonwater_environment__prospective_diverse_01__nh3__equilibrium_like geometry_protocol=fixed_solute_MMFF94s_neighbour_optimization pbc="F F F"
N       -1.01935812       0.99614502       0.08786156        0
C       -0.77266571      -0.46118841       0.14245376        0
C        0.69639084      -0.78343811      -0.14435695        0
O        1.08690947      -1.87926205      -0.53026822        0
N        1.56472812       0.23999885       0.10511018        0
H       -2.00730605       1.15685685       0.28614860        0
H       -0.88241045       1.29988146      -0.87795359        0
H       -1.39721767      -0.96827069      -0.59911900        0
H       -1.01585707      -0.83659750       1.14083420        0
H        1.19210486       1.12655508       0.42773841        0
H        2.55468177       0.10931950      -0.03844896        0
N       -0.88565840      -4.04625712      -0.36257135        0
H       -0.55134499      -4.69935106       0.34532261        0
H       -0.89797966      -4.57457744      -1.23435186        0
H       -0.10440668      -3.38406546      -0.48135370        0
15
Properties=species:S:1:pos:R:3:fragment_id:I:1 config_id=nonwater_contact__prospective_diverse_02__ch3cn molecule_id=prospective_diverse_02 smiles=OCCI perturbant=CH3CN n_solute_atoms=9 n_environment_atoms=6 environment_molecule_count=1 regime=mmff94s_contact source_config_id=nonwater_environment__prospective_diverse_02__ch3cn__equilibrium_like geometry_protocol=fixed_solute_MMFF94s_neighbour_optimization pbc="F F F"
O       -1.45306628       0.42999847      -0.54234022        0
C       -0.58658591      -0.43805968       0.18178416        0
C        0.87449460      -0.16453248      -0.16025607        0
I        1.50790534       1.72089778       0.65929860        0
H       -1.22385999       1.34217714      -0.28754044        0
H       -0.84412617      -1.46225099      -0.10596244        0
H       -0.79235240      -0.32889585       1.25172438        0
H        1.50600082      -0.95928090       0.24984576        0
H        1.01159000      -0.14005350      -1.24655373        0
C       -3.70691254      -0.78635199      -2.38383712        0
C       -4.70364258      -1.44493337      -3.22617775        0
N       -5.49370264      -1.97001922      -3.89468413        0
H       -2.69490357      -1.03185386      -2.71918483        0
H       -3.82440147       0.30067980      -2.42030473        0
H       -3.80861785      -1.10604591      -1.34253559        0
15
Properties=species:S:1:pos:R:3:fragment_id:I:1 config_id=nonwater_contact__prospective_diverse_02__ch3oh molecule_id=prospective_diverse_02 smiles=OCCI perturbant=CH3OH n_solute_atoms=9 n_environment_atoms=6 environment_molecule_count=1 regime=mmff94s_contact source_config_id=nonwater_environment__prospective_diverse_02__ch3oh__equilibrium_like geometry_protocol=fixed_solute_MMFF94s_neighbour_optimization pbc="F F F"
O       -1.45306628       0.42999847      -0.54234022        0
C       -0.58658591      -0.43805968       0.18178416        0
C        0.87449460      -0.16453248      -0.16025607        0
I        1.50790534       1.72089778       0.65929860        0
H       -1.22385999       1.34217714      -0.28754044        0
H       -0.84412617      -1.46225099      -0.10596244        0
H       -0.79235240      -0.32889585       1.25172438        0
H        1.50600082      -0.95928090       0.24984576        0
H        1.01159000      -0.14005350      -1.24655373        0
C        0.02011086      -2.90828675      -2.78592355        0
O        0.92407666      -3.05977016      -1.70416803        0
H       -0.81513816      -3.60180745      -2.66214917        0
H       -0.35794343      -1.88344497      -2.79390689        0
H        0.53968304      -3.10956592      -3.72590770        0
H        1.25106489      -3.97566530      -1.73954738        0
13
Properties=species:S:1:pos:R:3:fragment_id:I:1 config_id=nonwater_contact__prospective_diverse_02__nh3 molecule_id=prospective_diverse_02 smiles=OCCI perturbant=NH3 n_solute_atoms=9 n_environment_atoms=4 environment_molecule_count=1 regime=mmff94s_contact source_config_id=nonwater_environment__prospective_diverse_02__nh3__equilibrium_like geometry_protocol=fixed_solute_MMFF94s_neighbour_optimization pbc="F F F"
O       -1.45306628       0.42999847      -0.54234022        0
C       -0.58658591      -0.43805968       0.18178416        0
C        0.87449460      -0.16453248      -0.16025607        0
I        1.50790534       1.72089778       0.65929860        0
H       -1.22385999       1.34217714      -0.28754044        0
H       -0.84412617      -1.46225099      -0.10596244        0
H       -0.79235240      -0.32889585       1.25172438        0
H        1.50600082      -0.95928090       0.24984576        0
H        1.01159000      -0.14005350      -1.24655373        0
N       -1.41813049      -0.77837295      -3.27546235        0
H       -1.60687159      -0.03116621      -3.94215472        0
H       -2.21486597      -1.41068528      -3.34051834        0
H       -1.51761823      -0.33411203      -2.35225107        0
20
Properties=species:S:1:pos:R:3:fragment_id:I:1 config_id=nonwater_contact__prospective_diverse_03__ch3cn molecule_id=prospective_diverse_03 smiles=O1CCOCC1 perturbant=CH3CN n_solute_atoms=14 n_environment_atoms=6 environment_molecule_count=1 regime=mmff94s_contact source_config_id=nonwater_environment__prospective_diverse_03__ch3cn__altered_orientation geometry_protocol=fixed_solute_MMFF94s_neighbour_optimization pbc="F F F"
O        0.78583174       1.07704767       0.44056782        0
C       -0.41933223       1.31675135      -0.30141180        0
C       -1.39217026       0.14974482      -0.13655817        0
O       -0.78583020      -1.07704960      -0.56984882        0
C        0.41933304      -1.31675136       0.17213470        0
C        1.39217104      -0.14974543       0.00727230        0
H       -0.86747494       2.24288828       0.07038446        0
H       -0.15568256       1.46051770      -1.35562206        0
H       -2.29113666       0.31415554      -0.73790771        0
H       -1.69426549       0.03710232       0.91110096        0
H        0.86747600      -2.24289142      -0.19965558        0
H        0.15568108      -1.46051151       1.22634730        0
H        2.29114442      -0.31415514       0.60861325        0
H        1.69425502      -0.03710322      -1.04039088        0
C       -2.48013150      -3.82826765      -0.86372807        0
C       -1.56950553      -4.32432907       0.16716154        0
N       -0.84499251      -4.71779454       0.98436888        0
H       -3.19132502      -4.60544230      -1.15903290        0
H       -3.05021833      -2.96871597      -0.49906223        0
H       -1.92741725      -3.51871516      -1.75560149        0
20
Properties=species:S:1:pos:R:3:fragment_id:I:1 config_id=nonwater_contact__prospective_diverse_03__ch3oh molecule_id=prospective_diverse_03 smiles=O1CCOCC1 perturbant=CH3OH n_solute_atoms=14 n_environment_atoms=6 environment_molecule_count=1 regime=mmff94s_contact source_config_id=nonwater_environment__prospective_diverse_03__ch3oh__equilibrium_like geometry_protocol=fixed_solute_MMFF94s_neighbour_optimization pbc="F F F"
O        0.78583174       1.07704767       0.44056782        0
C       -0.41933223       1.31675135      -0.30141180        0
C       -1.39217026       0.14974482      -0.13655817        0
O       -0.78583020      -1.07704960      -0.56984882        0
C        0.41933304      -1.31675136       0.17213470        0
C        1.39217104      -0.14974543       0.00727230        0
H       -0.86747494       2.24288828       0.07038446        0
H       -0.15568256       1.46051770      -1.35562206        0
H       -2.29113666       0.31415554      -0.73790771        0
H       -1.69426549       0.03710232       0.91110096        0
H        0.86747600      -2.24289142      -0.19965558        0
H        0.15568108      -1.46051151       1.22634730        0
H        2.29114442      -0.31415514       0.60861325        0
H        1.69425502      -0.03710322      -1.04039088        0
C        3.16727367      -2.73192480      -2.42372064        0
O        3.53392836      -2.34453207      -1.11078832        0
H        3.22436102      -3.81950827      -2.51234126        0
H        2.14277192      -2.40571243      -2.61749901        0
H        3.83983371      -2.26025638      -3.14427166        0
H        4.44975982      -2.64406545      -0.97439442        0
18
Properties=species:S:1:pos:R:3:fragment_id:I:1 config_id=nonwater_contact__prospective_diverse_03__nh3 molecule_id=prospective_diverse_03 smiles=O1CCOCC1 perturbant=NH3 n_solute_atoms=14 n_environment_atoms=4 environment_molecule_count=1 regime=mmff94s_contact source_config_id=nonwater_environment__prospective_diverse_03__nh3__equilibrium_like geometry_protocol=fixed_solute_MMFF94s_neighbour_optimization pbc="F F F"
O        0.78583174       1.07704767       0.44056782        0
C       -0.41933223       1.31675135      -0.30141180        0
C       -1.39217026       0.14974482      -0.13655817        0
O       -0.78583020      -1.07704960      -0.56984882        0
C        0.41933304      -1.31675136       0.17213470        0
C        1.39217104      -0.14974543       0.00727230        0
H       -0.86747494       2.24288828       0.07038446        0
H       -0.15568256       1.46051770      -1.35562206        0
H       -2.29113666       0.31415554      -0.73790771        0
H       -1.69426549       0.03710232       0.91110096        0
H        0.86747600      -2.24289142      -0.19965558        0
H        0.15568108      -1.46051151       1.22634730        0
H        2.29114442      -0.31415514       0.60861325        0
H        1.69425502      -0.03710322      -1.04039088        0
N       -0.34968544      -1.16006574      -3.52279079        0
H       -0.54248404      -1.18563556      -2.51321224        0
H       -1.26705794      -1.08448917      -3.96001073        0
H       -0.01692866      -2.09680990      -3.74690570        0
14
Properties=species:S:1:pos:R:3:fragment_id:I:1 config_id=nonwater_contact__prospective_diverse_04__ch3cn molecule_id=prospective_diverse_04 smiles=c1nccs1 perturbant=CH3CN n_solute_atoms=8 n_environment_atoms=6 environment_molecule_count=1 regime=mmff94s_contact source_config_id=nonwater_environment__prospective_diverse_04__ch3cn__equilibrium_like geometry_protocol=fixed_solute_MMFF94s_neighbour_optimization pbc="F F F"
C        1.37214998      -0.09055001      -0.28230593        0
N        0.70441497       1.02370028      -0.07672554        0
C       -0.64841489       0.74505612      -0.05788454        0
C       -0.98849381      -0.57730164      -0.24951018        0
S        0.43204978      -1.51502684      -0.46220649        0
H        2.45268217      -0.11536374      -0.33614612        0
H       -1.35238758       1.55289076       0.10132035        0
H       -1.97200062      -1.02340493      -0.27399795        0
C        2.47185593       3.72095934       0.26457675        0
C        3.58539354       2.79371947       0.06771370        0
N        4.46813293       2.05577884      -0.08879817        0
H        2.83885237       4.74169674       0.40767002        0
H        1.80546629       3.71984338      -0.60299177        0
H        1.88633429       3.44549380       1.14663975        0
14
Properties=species:S:1:pos:R:3:fragment_id:I:1 config_id=nonwater_contact__prospective_diverse_04__ch3oh molecule_id=prospective_diverse_04 smiles=c1nccs1 perturbant=CH3OH n_solute_atoms=8 n_environment_atoms=6 environment_molecule_count=1 regime=mmff94s_contact source_config_id=nonwater_environment__prospective_diverse_04__ch3oh__altered_orientation geometry_protocol=fixed_solute_MMFF94s_neighbour_optimization pbc="F F F"
C        1.37214998      -0.09055001      -0.28230593        0
N        0.70441497       1.02370028      -0.07672554        0
C       -0.64841489       0.74505612      -0.05788454        0
C       -0.98849381      -0.57730164      -0.24951018        0
S        0.43204978      -1.51502684      -0.46220649        0
H        2.45268217      -0.11536374      -0.33614612        0
H       -1.35238758       1.55289076       0.10132035        0
H       -1.97200062      -1.02340493      -0.27399795        0
C        3.89383382       2.56168878       0.15621302        0
O        4.56145762       1.55126880      -0.58213668        0
H        3.05380420       2.94573494      -0.42753393        0
H        3.52327092       2.13312966       1.09027526        0
H        4.59391888       3.36988321       0.38156129        0
H        4.86968680       1.96723355      -1.40574454        0
12
Properties=species:S:1:pos:R:3:fragment_id:I:1 config_id=nonwater_contact__prospective_diverse_04__nh3 molecule_id=prospective_diverse_04 smiles=c1nccs1 perturbant=NH3 n_solute_atoms=8 n_environment_atoms=4 environment_molecule_count=1 regime=mmff94s_contact source_config_id=nonwater_environment__prospective_diverse_04__nh3__equilibrium_like geometry_protocol=fixed_solute_MMFF94s_neighbour_optimization pbc="F F F"
C        1.37214998      -0.09055001      -0.28230593        0
N        0.70441497       1.02370028      -0.07672554        0
C       -0.64841489       0.74505612      -0.05788454        0
C       -0.98849381      -0.57730164      -0.24951018        0
S        0.43204978      -1.51502684      -0.46220649        0
H        2.45268217      -0.11536374      -0.33614612        0
H       -1.35238758       1.55289076       0.10132035        0
H       -1.97200062      -1.02340493      -0.27399795        0
N        2.73951251       3.25615765       0.17926871        0
H        2.54943042       3.69312604       1.07976401        0
H        2.47532226       3.94455186      -0.52378251        0
H        2.02466792       2.51980873       0.09684986        0
21
Properties=species:S:1:pos:R:3:fragment_id:I:1 config_id=nonwater_contact__prospective_diverse_05__ch3cn molecule_id=prospective_diverse_05 smiles=O=S1(=O)CCCC1 perturbant=CH3CN n_solute_atoms=15 n_environment_atoms=6 environment_molecule_count=1 regime=mmff94s_contact source_config_id=nonwater_environment__prospective_diverse_05__ch3cn__altered_orientation geometry_protocol=fixed_solute_MMFF94s_neighbour_optimization pbc="F F F"
O       -1.87190928       1.00890348       1.35090769        0
S       -1.33947517       0.62250975       0.06087132        0
O       -2.07239471       0.82417850      -1.17166223        0
C       -0.81480000      -1.08317618       0.14737168        0
C        0.63632065      -1.08047239      -0.31977724        0
C        1.25685804       0.20063347       0.23374364        0
C        0.29248937       1.32591556      -0.12363579        0
H       -0.89038910      -1.40408293       1.19042334        0
H       -1.45699836      -1.70158511      -0.48284367        0
H        1.16814641      -1.97292757       0.02309030        0
H        0.67596306      -1.06505191      -1.41568521        0
H        2.25371432       0.38264655      -0.17859367        0
H        1.35231444       0.12242750       1.32351224        0
H        0.41101455       1.62686768      -1.16863899        0
H        0.39914580       2.19321361       0.53091659        0
C       -5.12680372       0.33914751       1.08175296        0
C       -4.51517656      -0.98807123       1.02088253        0
N       -4.02094882      -2.03780001       0.96946143        0
H       -4.81349174       0.87126100       1.98474058        0
H       -4.84020010       0.94079106       0.21431374        0
H       -6.21808480       0.26249493       1.09512105        0
21
Properties=species:S:1:pos:R:3:fragment_id:I:1 config_id=nonwater_contact__prospective_diverse_05__ch3oh molecule_id=prospective_diverse_05 smiles=O=S1(=O)CCCC1 perturbant=CH3OH n_solute_atoms=15 n_environment_atoms=6 environment_molecule_count=1 regime=mmff94s_contact source_config_id=nonwater_environment__prospective_diverse_05__ch3oh__altered_orientation geometry_protocol=fixed_solute_MMFF94s_neighbour_optimization pbc="F F F"
O       -1.87190928       1.00890348       1.35090769        0
S       -1.33947517       0.62250975       0.06087132        0
O       -2.07239471       0.82417850      -1.17166223        0
C       -0.81480000      -1.08317618       0.14737168        0
C        0.63632065      -1.08047239      -0.31977724        0
C        1.25685804       0.20063347       0.23374364        0
C        0.29248937       1.32591556      -0.12363579        0
H       -0.89038910      -1.40408293       1.19042334        0
H       -1.45699836      -1.70158511      -0.48284367        0
H        1.16814641      -1.97292757       0.02309030        0
H        0.67596306      -1.06505191      -1.41568521        0
H        2.25371432       0.38264655      -0.17859367        0
H        1.35231444       0.12242750       1.32351224        0
H        0.41101455       1.62686768      -1.16863899        0
H        0.39914580       2.19321361       0.53091659        0
C       -1.33705865       0.34017334      -4.72162784        0
O       -0.79358516       0.15936712      -3.42637791        0
H       -0.60822616       0.00352233      -5.46255468        0
H       -2.25189375      -0.24945399      -4.81912122        0
H       -1.55408329       1.39911161      -4.88175628        0
H       -1.48254566       0.47479522      -2.79901871        0
19
Properties=species:S:1:pos:R:3:fragment_id:I:1 config_id=nonwater_contact__prospective_diverse_05__nh3 molecule_id=prospective_diverse_05 smiles=O=S1(=O)CCCC1 perturbant=NH3 n_solute_atoms=15 n_environment_atoms=4 environment_molecule_count=1 regime=mmff94s_contact source_config_id=nonwater_environment__prospective_diverse_05__nh3__equilibrium_like geometry_protocol=fixed_solute_MMFF94s_neighbour_optimization pbc="F F F"
O       -1.87190928       1.00890348       1.35090769        0
S       -1.33947517       0.62250975       0.06087132        0
O       -2.07239471       0.82417850      -1.17166223        0
C       -0.81480000      -1.08317618       0.14737168        0
C        0.63632065      -1.08047239      -0.31977724        0
C        1.25685804       0.20063347       0.23374364        0
C        0.29248937       1.32591556      -0.12363579        0
H       -0.89038910      -1.40408293       1.19042334        0
H       -1.45699836      -1.70158511      -0.48284367        0
H        1.16814641      -1.97292757       0.02309030        0
H        0.67596306      -1.06505191      -1.41568521        0
H        2.25371432       0.38264655      -0.17859367        0
H        1.35231444       0.12242750       1.32351224        0
H        0.41101455       1.62686768      -1.16863899        0
H        0.39914580       2.19321361       0.53091659        0
N       -0.33853466       0.29806123       3.71246685        0
H       -0.87819365      -0.30308188       4.33555845        0
H       -0.10409866       1.11789485       4.27252967        0
H       -1.03411656       0.64667351       3.03516870        0
