13
Properties=species:S:1:pos:R:3:fragment_id:I:1 config_id=dissociation__stress_acetamidine__single_water__3A molecule_id=stress_acetamidine regime=single_water n_solute_atoms=10 pbc="F F F"
C       -1.25304612      -0.29042184       0.00481029        0
C        0.12364562       0.31516125      -0.05679660        0
N        0.24625952       1.57418270      -0.29918618        0
N        1.19654725      -0.48706377       0.14567486        0
H       -1.33894047      -1.07441563      -0.75289939        0
H       -2.01900409       0.46857509      -0.17636534        0
H       -1.41179649      -0.73117477       0.99308295        0
H        1.23527122       1.82800961      -0.30781948        0
H        2.13982274      -0.12823087       0.11448995        0
H        1.08124082      -1.47462178       0.33500894        0
O        2.95652181       2.89483929       1.90558759        1
H        3.74066208       3.42312141       1.75634318        1
H        2.97195988       2.70192138       2.84301822        1
13
Properties=species:S:1:pos:R:3:fragment_id:I:1 config_id=dissociation__stress_acetamidine__single_water__4A molecule_id=stress_acetamidine regime=single_water n_solute_atoms=10 pbc="F F F"
C       -1.25304612      -0.29042184       0.00481029        0
C        0.12364562       0.31516125      -0.05679660        0
N        0.24625952       1.57418270      -0.29918618        0
N        1.19654725      -0.48706377       0.14567486        0
H       -1.33894047      -1.07441563      -0.75289939        0
H       -2.01900409       0.46857509      -0.17636534        0
H       -1.41179649      -0.73117477       0.99308295        0
H        1.23527122       1.82800961      -0.30781948        0
H        2.13982274      -0.12823087       0.11448995        0
H        1.08124082      -1.47462178       0.33500894        0
O        3.65372309       3.57749472       2.35495959        1
H        4.43786336       4.10577684       2.20571518        1
H        3.66916116       3.38457681       3.29239022        1
13
Properties=species:S:1:pos:R:3:fragment_id:I:1 config_id=dissociation__stress_acetamidine__single_water__5A molecule_id=stress_acetamidine regime=single_water n_solute_atoms=10 pbc="F F F"
C       -1.25304612      -0.29042184       0.00481029        0
C        0.12364562       0.31516125      -0.05679660        0
N        0.24625952       1.57418270      -0.29918618        0
N        1.19654725      -0.48706377       0.14567486        0
H       -1.33894047      -1.07441563      -0.75289939        0
H       -2.01900409       0.46857509      -0.17636534        0
H       -1.41179649      -0.73117477       0.99308295        0
H        1.23527122       1.82800961      -0.30781948        0
H        2.13982274      -0.12823087       0.11448995        0
H        1.08124082      -1.47462178       0.33500894        0
O        4.33032622       4.23998174       2.79105531        1
H        5.11446649       4.76826386       2.64181090        1
H        4.34576429       4.04706383       3.72848594        1
13
Properties=species:S:1:pos:R:3:fragment_id:I:1 config_id=dissociation__stress_acetamidine__single_water__6A molecule_id=stress_acetamidine regime=single_water n_solute_atoms=10 pbc="F F F"
C       -1.25304612      -0.29042184       0.00481029        0
C        0.12364562       0.31516125      -0.05679660        0
N        0.24625952       1.57418270      -0.29918618        0
N        1.19654725      -0.48706377       0.14567486        0
H       -1.33894047      -1.07441563      -0.75289939        0
H       -2.01900409       0.46857509      -0.17636534        0
H       -1.41179649      -0.73117477       0.99308295        0
H        1.23527122       1.82800961      -0.30781948        0
H        2.13982274      -0.12823087       0.11448995        0
H        1.08124082      -1.47462178       0.33500894        0
O        4.99733046       4.89307013       3.22096420        1
H        5.78147073       5.42135225       3.07171979        1
H        5.01276853       4.70015222       4.15839483        1
13
Properties=species:S:1:pos:R:3:fragment_id:I:1 config_id=dissociation__stress_acetamidine__single_water__8A molecule_id=stress_acetamidine regime=single_water n_solute_atoms=10 pbc="F F F"
C       -1.25304612      -0.29042184       0.00481029        0
C        0.12364562       0.31516125      -0.05679660        0
N        0.24625952       1.57418270      -0.29918618        0
N        1.19654725      -0.48706377       0.14567486        0
H       -1.33894047      -1.07441563      -0.75289939        0
H       -2.01900409       0.46857509      -0.17636534        0
H       -1.41179649      -0.73117477       0.99308295        0
H        1.23527122       1.82800961      -0.30781948        0
H        2.13982274      -0.12823087       0.11448995        0
H        1.08124082      -1.47462178       0.33500894        0
O        6.31749596       6.18569275       4.07185966        1
H        7.10163623       6.71397487       3.92261525        1
H        6.33293403       5.99277484       5.00929029        1
13
Properties=species:S:1:pos:R:3:fragment_id:I:1 config_id=dissociation__stress_acetamidine__single_water__10A molecule_id=stress_acetamidine regime=single_water n_solute_atoms=10 pbc="F F F"
C       -1.25304612      -0.29042184       0.00481029        0
C        0.12364562       0.31516125      -0.05679660        0
N        0.24625952       1.57418270      -0.29918618        0
N        1.19654725      -0.48706377       0.14567486        0
H       -1.33894047      -1.07441563      -0.75289939        0
H       -2.01900409       0.46857509      -0.17636534        0
H       -1.41179649      -0.73117477       0.99308295        0
H        1.23527122       1.82800961      -0.30781948        0
H        2.13982274      -0.12823087       0.11448995        0
H        1.08124082      -1.47462178       0.33500894        0
O        7.62865659       7.46949837       4.91695115        1
H        8.41279686       7.99778049       4.76770674        1
H        7.64409466       7.27658046       5.85438178        1
13
Properties=species:S:1:pos:R:3:fragment_id:I:1 config_id=dissociation__stress_acetamidine__single_water__15A molecule_id=stress_acetamidine regime=single_water n_solute_atoms=10 pbc="F F F"
C       -1.25304612      -0.29042184       0.00481029        0
C        0.12364562       0.31516125      -0.05679660        0
N        0.24625952       1.57418270      -0.29918618        0
N        1.19654725      -0.48706377       0.14567486        0
H       -1.33894047      -1.07441563      -0.75289939        0
H       -2.01900409       0.46857509      -0.17636534        0
H       -1.41179649      -0.73117477       0.99308295        0
H        1.23527122       1.82800961      -0.30781948        0
H        2.13982274      -0.12823087       0.11448995        0
H        1.08124082      -1.47462178       0.33500894        0
O       10.89109215      10.66386907       7.01971146        1
H       11.67523242      11.19215119       6.87046705        1
H       10.90653022      10.47095116       7.95714209        1
13
Properties=species:S:1:pos:R:3:fragment_id:I:1 config_id=dissociation__stress_acetamidine__single_water__20A molecule_id=stress_acetamidine regime=single_water n_solute_atoms=10 pbc="F F F"
C       -1.25304612      -0.29042184       0.00481029        0
C        0.12364562       0.31516125      -0.05679660        0
N        0.24625952       1.57418270      -0.29918618        0
N        1.19654725      -0.48706377       0.14567486        0
H       -1.33894047      -1.07441563      -0.75289939        0
H       -2.01900409       0.46857509      -0.17636534        0
H       -1.41179649      -0.73117477       0.99308295        0
H        1.23527122       1.82800961      -0.30781948        0
H        2.13982274      -0.12823087       0.11448995        0
H        1.08124082      -1.47462178       0.33500894        0
O       14.14478114      13.84967568       9.11683428        1
H       14.92892141      14.37795780       8.96758987        1
H       14.16021921      13.65675777      10.05426491        1
19
Properties=species:S:1:pos:R:3:fragment_id:I:1 config_id=dissociation__stress_acetamidine__whole_environment__3A molecule_id=stress_acetamidine regime=whole_environment n_solute_atoms=10 pbc="F F F"
C       -1.25304612      -0.29042184       0.00481029        0
C        0.12364562       0.31516125      -0.05679660        0
N        0.24625952       1.57418270      -0.29918618        0
N        1.19654725      -0.48706377       0.14567486        0
H       -1.33894047      -1.07441563      -0.75289939        0
H       -2.01900409       0.46857509      -0.17636534        0
H       -1.41179649      -0.73117477       0.99308295        0
H        1.23527122       1.82800961      -0.30781948        0
H        2.13982274      -0.12823087       0.11448995        0
H        1.08124082      -1.47462178       0.33500894        0
O        5.67547625       5.55706763       3.65805423        1
H        6.45961652       6.08534975       3.50880982        1
H        5.69091432       5.36414972       4.59548486        1
O        0.41704822       2.40096324       2.57957487        2
H        0.04739926       3.23260650       2.87615703        2
H        0.28815377       1.80446753       3.31701024        2
O        4.24450714       8.59022883       2.36834801        3
H        3.86006931       7.72530153       2.22572911        3
H        3.56629636       9.08068110       2.83280312        3
19
Properties=species:S:1:pos:R:3:fragment_id:I:1 config_id=dissociation__stress_acetamidine__whole_environment__4A molecule_id=stress_acetamidine regime=whole_environment n_solute_atoms=10 pbc="F F F"
C       -1.25304612      -0.29042184       0.00481029        0
C        0.12364562       0.31516125      -0.05679660        0
N        0.24625952       1.57418270      -0.29918618        0
N        1.19654725      -0.48706377       0.14567486        0
H       -1.33894047      -1.07441563      -0.75289939        0
H       -2.01900409       0.46857509      -0.17636534        0
H       -1.41179649      -0.73117477       0.99308295        0
H        1.23527122       1.82800961      -0.30781948        0
H        2.13982274      -0.12823087       0.11448995        0
H        1.08124082      -1.47462178       0.33500894        0
O        6.80653095       6.66452490       4.38706079        1
H        7.59067122       7.19280702       4.23781638        1
H        6.82196902       6.47160699       5.32449142        1
O        1.54810292       3.50842051       3.30858143        2
H        1.17845396       4.34006377       3.60516359        2
H        1.41920847       2.91192480       4.04601680        2
O        5.37556184       9.69768610       3.09735457        3
H        4.99112401       8.83275880       2.95473567        3
H        4.69735106      10.18813837       3.56180968        3
19
Properties=species:S:1:pos:R:3:fragment_id:I:1 config_id=dissociation__stress_acetamidine__whole_environment__5A molecule_id=stress_acetamidine regime=whole_environment n_solute_atoms=10 pbc="F F F"
C       -1.25304612      -0.29042184       0.00481029        0
C        0.12364562       0.31516125      -0.05679660        0
N        0.24625952       1.57418270      -0.29918618        0
N        1.19654725      -0.48706377       0.14567486        0
H       -1.33894047      -1.07441563      -0.75289939        0
H       -2.01900409       0.46857509      -0.17636534        0
H       -1.41179649      -0.73117477       0.99308295        0
H        1.23527122       1.82800961      -0.30781948        0
H        2.13982274      -0.12823087       0.11448995        0
H        1.08124082      -1.47462178       0.33500894        0
O        7.65599473       7.49626615       4.93457160        1
H        8.44013500       8.02454827       4.78532719        1
H        7.67143280       7.30334824       5.87200223        1
O        2.39756670       4.34016176       3.85609224        2
H        2.02791774       5.17180502       4.15267440        2
H        2.26867225       3.74366605       4.59352761        2
O        6.22502562      10.52942735       3.64486538        3
H        5.84058779       9.66450005       3.50224648        3
H        5.54681484      11.01987962       4.10932049        3
19
Properties=species:S:1:pos:R:3:fragment_id:I:1 config_id=dissociation__stress_acetamidine__whole_environment__6A molecule_id=stress_acetamidine regime=whole_environment n_solute_atoms=10 pbc="F F F"
C       -1.25304612      -0.29042184       0.00481029        0
C        0.12364562       0.31516125      -0.05679660        0
N        0.24625952       1.57418270      -0.29918618        0
N        1.19654725      -0.48706377       0.14567486        0
H       -1.33894047      -1.07441563      -0.75289939        0
H       -2.01900409       0.46857509      -0.17636534        0
H       -1.41179649      -0.73117477       0.99308295        0
H        1.23527122       1.82800961      -0.30781948        0
H        2.13982274      -0.12823087       0.11448995        0
H        1.08124082      -1.47462178       0.33500894        0
O        8.41869615       8.24305518       5.42616085        1
H        9.20283642       8.77133730       5.27691644        1
H        8.43413422       8.05013727       6.36359148        1
O        3.16026812       5.08695079       4.34768149        2
H        2.79061916       5.91859405       4.64426365        2
H        3.03137367       4.49045508       5.08511686        2
O        6.98772704      11.27621638       4.13645463        3
H        6.60328921      10.41128908       3.99383573        3
H        6.30951626      11.76666865       4.60090974        3
19
Properties=species:S:1:pos:R:3:fragment_id:I:1 config_id=dissociation__stress_acetamidine__whole_environment__8A molecule_id=stress_acetamidine regime=whole_environment n_solute_atoms=10 pbc="F F F"
C       -1.25304612      -0.29042184       0.00481029        0
C        0.12364562       0.31516125      -0.05679660        0
N        0.24625952       1.57418270      -0.29918618        0
N        1.19654725      -0.48706377       0.14567486        0
H       -1.33894047      -1.07441563      -0.75289939        0
H       -2.01900409       0.46857509      -0.17636534        0
H       -1.41179649      -0.73117477       0.99308295        0
H        1.23527122       1.82800961      -0.30781948        0
H        2.13982274      -0.12823087       0.11448995        0
H        1.08124082      -1.47462178       0.33500894        0
O        9.84572799       9.64031456       6.34593562        1
H       10.62986826      10.16859668       6.19669121        1
H        9.86116606       9.44739665       7.28336625        1
O        4.58729996       6.48421017       5.26745626        2
H        4.21765100       7.31585343       5.56403842        2
H        4.45840551       5.88771446       6.00489163        2
O        8.41475888      12.67347576       5.05622940        3
H        8.03032105      11.80854846       4.91361050        3
H        7.73654810      13.16392803       5.52068451        3
19
Properties=species:S:1:pos:R:3:fragment_id:I:1 config_id=dissociation__stress_acetamidine__whole_environment__10A molecule_id=stress_acetamidine regime=whole_environment n_solute_atoms=10 pbc="F F F"
C       -1.25304612      -0.29042184       0.00481029        0
C        0.12364562       0.31516125      -0.05679660        0
N        0.24625952       1.57418270      -0.29918618        0
N        1.19654725      -0.48706377       0.14567486        0
H       -1.33894047      -1.07441563      -0.75289939        0
H       -2.01900409       0.46857509      -0.17636534        0
H       -1.41179649      -0.73117477       0.99308295        0
H        1.23527122       1.82800961      -0.30781948        0
H        2.13982274      -0.12823087       0.11448995        0
H        1.08124082      -1.47462178       0.33500894        0
O       11.21645626      10.98244505       7.22942066        1
H       12.00059653      11.51072717       7.08017625        1
H       11.23189433      10.78952714       8.16685129        1
O        5.95802823       7.82634066       6.15094130        2
H        5.58837927       8.65798392       6.44752346        2
H        5.82913378       7.22984495       6.88837667        2
O        9.78548715      14.01560625       5.93971444        3
H        9.40104932      13.15067895       5.79709554        3
H        9.10727637      14.50605852       6.40416955        3
19
Properties=species:S:1:pos:R:3:fragment_id:I:1 config_id=dissociation__stress_acetamidine__whole_environment__15A molecule_id=stress_acetamidine regime=whole_environment n_solute_atoms=10 pbc="F F F"
C       -1.25304612      -0.29042184       0.00481029        0
C        0.12364562       0.31516125      -0.05679660        0
N        0.24625952       1.57418270      -0.29918618        0
N        1.19654725      -0.48706377       0.14567486        0
H       -1.33894047      -1.07441563      -0.75289939        0
H       -2.01900409       0.46857509      -0.17636534        0
H       -1.41179649      -0.73117477       0.99308295        0
H        1.23527122       1.82800961      -0.30781948        0
H        2.13982274      -0.12823087       0.11448995        0
H        1.08124082      -1.47462178       0.33500894        0
O       14.55482395      14.25116369       9.38112203        1
H       15.33896422      14.77944581       9.23187762        1
H       14.57026202      14.05824578      10.31855266        1
O        9.29639592      11.09505930       8.30264267        2
H        8.92674696      11.92670256       8.59922483        2
H        9.16750147      10.49856359       9.04007804        2
O       13.12385484      17.28432489       8.09141581        3
H       12.73941701      16.41939759       7.94879691        3
H       12.44564406      17.77477716       8.55587092        3
19
Properties=species:S:1:pos:R:3:fragment_id:I:1 config_id=dissociation__stress_acetamidine__whole_environment__20A molecule_id=stress_acetamidine regime=whole_environment n_solute_atoms=10 pbc="F F F"
C       -1.25304612      -0.29042184       0.00481029        0
C        0.12364562       0.31516125      -0.05679660        0
N        0.24625952       1.57418270      -0.29918618        0
N        1.19654725      -0.48706377       0.14567486        0
H       -1.33894047      -1.07441563      -0.75289939        0
H       -2.01900409       0.46857509      -0.17636534        0
H       -1.41179649      -0.73117477       0.99308295        0
H        1.23527122       1.82800961      -0.30781948        0
H        2.13982274      -0.12823087       0.11448995        0
H        1.08124082      -1.47462178       0.33500894        0
O       17.86330453      17.49061876      11.51356006        1
H       18.64744480      18.01890088      11.36431565        1
H       17.87874260      17.29770085      12.45099069        1
O       12.60487650      14.33451437      10.43508070        2
H       12.23522754      15.16615763      10.73166286        2
H       12.47598205      13.73801866      11.17251607        2
O       16.43233542      20.52377996      10.22385384        3
H       16.04789759      19.65885266      10.08123494        3
H       15.75412464      21.01423223      10.68830895        3
14
Properties=species:S:1:pos:R:3:fragment_id:I:1 config_id=dissociation__stress_dimethyl_sulfone__single_water__3A molecule_id=stress_dimethyl_sulfone regime=single_water n_solute_atoms=11 pbc="F F F"
C        1.36056946      -0.42353116       0.03232429        0
S        0.05728410       0.78043226       0.10690922        0
O        0.02797016       1.32029865       1.45213484        0
O        0.19008790       1.65049854      -1.04517368        0
C       -1.40632911      -0.19988419      -0.11772434        0
H        1.21717294      -1.14868262       0.83539551        0
H        1.33259294      -0.91359864      -0.94255167        0
H        2.31204970       0.09611812       0.16280122        0
H       -1.35261461      -0.69655516      -1.08816955        0
H       -1.46803310      -0.93163943       0.68977725        0
H       -2.27075039       0.46654362      -0.08572310        0
O        3.85307941      -2.57833078       0.92541326        1
H        3.79447914      -3.41340262       1.38958228        1
H        4.09626837      -1.94498009       1.60065978        1
14
Properties=species:S:1:pos:R:3:fragment_id:I:1 config_id=dissociation__stress_dimethyl_sulfone__single_water__4A molecule_id=stress_dimethyl_sulfone regime=single_water n_solute_atoms=11 pbc="F F F"
C        1.36056946      -0.42353116       0.03232429        0
S        0.05728410       0.78043226       0.10690922        0
O        0.02797016       1.32029865       1.45213484        0
O        0.19008790       1.65049854      -1.04517368        0
C       -1.40632911      -0.19988419      -0.11772434        0
H        1.21717294      -1.14868262       0.83539551        0
H        1.33259294      -0.91359864      -0.94255167        0
H        2.31204970       0.09611812       0.16280122        0
H       -1.35261461      -0.69655516      -1.08816955        0
H       -1.46803310      -0.93163943       0.68977725        0
H       -2.27075039       0.46654362      -0.08572310        0
O        4.67930752      -3.13121048       1.12385258        1
H        4.62070725      -3.96628232       1.58802160        1
H        4.92249648      -2.49785979       1.79909910        1
14
Properties=species:S:1:pos:R:3:fragment_id:I:1 config_id=dissociation__stress_dimethyl_sulfone__single_water__5A molecule_id=stress_dimethyl_sulfone regime=single_water n_solute_atoms=11 pbc="F F F"
C        1.36056946      -0.42353116       0.03232429        0
S        0.05728410       0.78043226       0.10690922        0
O        0.02797016       1.32029865       1.45213484        0
O        0.19008790       1.65049854      -1.04517368        0
C       -1.40632911      -0.19988419      -0.11772434        0
H        1.21717294      -1.14868262       0.83539551        0
H        1.33259294      -0.91359864      -0.94255167        0
H        2.31204970       0.09611812       0.16280122        0
H       -1.35261461      -0.69655516      -1.08816955        0
H       -1.46803310      -0.93163943       0.68977725        0
H       -2.27075039       0.46654362      -0.08572310        0
O        5.50099236      -3.68104999       1.32120072        1
H        5.44239209      -4.51612183       1.78536974        1
H        5.74418132      -3.04769930       1.99644724        1
14
Properties=species:S:1:pos:R:3:fragment_id:I:1 config_id=dissociation__stress_dimethyl_sulfone__single_water__6A molecule_id=stress_dimethyl_sulfone regime=single_water n_solute_atoms=11 pbc="F F F"
C        1.36056946      -0.42353116       0.03232429        0
S        0.05728410       0.78043226       0.10690922        0
O        0.02797016       1.32029865       1.45213484        0
O        0.19008790       1.65049854      -1.04517368        0
C       -1.40632911      -0.19988419      -0.11772434        0
H        1.21717294      -1.14868262       0.83539551        0
H        1.33259294      -0.91359864      -0.94255167        0
H        2.31204970       0.09611812       0.16280122        0
H       -1.35261461      -0.69655516      -1.08816955        0
H       -1.46803310      -0.93163943       0.68977725        0
H       -2.27075039       0.46654362      -0.08572310        0
O        6.33216467      -4.23723815       1.52082751        1
H        6.27356440      -5.07230999       1.98499653        1
H        6.57535363      -3.60388746       2.19607403        1
14
Properties=species:S:1:pos:R:3:fragment_id:I:1 config_id=dissociation__stress_dimethyl_sulfone__single_water__8A molecule_id=stress_dimethyl_sulfone regime=single_water n_solute_atoms=11 pbc="F F F"
C        1.36056946      -0.42353116       0.03232429        0
S        0.05728410       0.78043226       0.10690922        0
O        0.02797016       1.32029865       1.45213484        0
O        0.19008790       1.65049854      -1.04517368        0
C       -1.40632911      -0.19988419      -0.11772434        0
H        1.21717294      -1.14868262       0.83539551        0
H        1.33259294      -0.91359864      -0.94255167        0
H        2.31204970       0.09611812       0.16280122        0
H       -1.35261461      -0.69655516      -1.08816955        0
H       -1.46803310      -0.93163943       0.68977725        0
H       -2.27075039       0.46654362      -0.08572310        0
O        7.98476339      -5.34309290       1.91774037        1
H        7.92616312      -6.17816474       2.38190939        1
H        8.22795235      -4.70974221       2.59298689        1
14
Properties=species:S:1:pos:R:3:fragment_id:I:1 config_id=dissociation__stress_dimethyl_sulfone__single_water__10A molecule_id=stress_dimethyl_sulfone regime=single_water n_solute_atoms=11 pbc="F F F"
C        1.36056946      -0.42353116       0.03232429        0
S        0.05728410       0.78043226       0.10690922        0
O        0.02797016       1.32029865       1.45213484        0
O        0.19008790       1.65049854      -1.04517368        0
C       -1.40632911      -0.19988419      -0.11772434        0
H        1.21717294      -1.14868262       0.83539551        0
H        1.33259294      -0.91359864      -0.94255167        0
H        2.31204970       0.09611812       0.16280122        0
H       -1.35261461      -0.69655516      -1.08816955        0
H       -1.46803310      -0.93163943       0.68977725        0
H       -2.27075039       0.46654362      -0.08572310        0
O        9.62821710      -6.44282816       2.31245683        1
H        9.56961683      -7.27790000       2.77662585        1
H        9.87140606      -5.80947747       2.98770335        1
14
Properties=species:S:1:pos:R:3:fragment_id:I:1 config_id=dissociation__stress_dimethyl_sulfone__single_water__15A molecule_id=stress_dimethyl_sulfone regime=single_water n_solute_atoms=11 pbc="F F F"
C        1.36056946      -0.42353116       0.03232429        0
S        0.05728410       0.78043226       0.10690922        0
O        0.02797016       1.32029865       1.45213484        0
O        0.19008790       1.65049854      -1.04517368        0
C       -1.40632911      -0.19988419      -0.11772434        0
H        1.21717294      -1.14868262       0.83539551        0
H        1.33259294      -0.91359864      -0.94255167        0
H        2.31204970       0.09611812       0.16280122        0
H       -1.35261461      -0.69655516      -1.08816955        0
H       -1.46803310      -0.93163943       0.68977725        0
H       -2.27075039       0.46654362      -0.08572310        0
O       13.72108912      -9.18161882       3.29546228        1
H       13.66248885     -10.01669066       3.75963130        1
H       13.96427808      -8.54826813       3.97070880        1
14
Properties=species:S:1:pos:R:3:fragment_id:I:1 config_id=dissociation__stress_dimethyl_sulfone__single_water__20A molecule_id=stress_dimethyl_sulfone regime=single_water n_solute_atoms=11 pbc="F F F"
C        1.36056946      -0.42353116       0.03232429        0
S        0.05728410       0.78043226       0.10690922        0
O        0.02797016       1.32029865       1.45213484        0
O        0.19008790       1.65049854      -1.04517368        0
C       -1.40632911      -0.19988419      -0.11772434        0
H        1.21717294      -1.14868262       0.83539551        0
H        1.33259294      -0.91359864      -0.94255167        0
H        2.31204970       0.09611812       0.16280122        0
H       -1.35261461      -0.69655516      -1.08816955        0
H       -1.46803310      -0.93163943       0.68977725        0
H       -2.27075039       0.46654362      -0.08572310        0
O       17.80502971     -11.91443292       4.27632262        1
H       17.74642944     -12.74950476       4.74049164        1
H       18.04821867     -11.28108223       4.95156914        1
20
Properties=species:S:1:pos:R:3:fragment_id:I:1 config_id=dissociation__stress_dimethyl_sulfone__whole_environment__3A molecule_id=stress_dimethyl_sulfone regime=whole_environment n_solute_atoms=11 pbc="F F F"
C        1.36056946      -0.42353116       0.03232429        0
S        0.05728410       0.78043226       0.10690922        0
O        0.02797016       1.32029865       1.45213484        0
O        0.19008790       1.65049854      -1.04517368        0
C       -1.40632911      -0.19988419      -0.11772434        0
H        1.21717294      -1.14868262       0.83539551        0
H        1.33259294      -0.91359864      -0.94255167        0
H        2.31204970       0.09611812       0.16280122        0
H       -1.35261461      -0.69655516      -1.08816955        0
H       -1.46803310      -0.93163943       0.68977725        0
H       -2.27075039       0.46654362      -0.08572310        0
O       10.04021339      -6.71852004       2.41140803        1
H        9.98161312      -7.55359188       2.87557705        1
H       10.28340235      -6.08516935       3.08665455        1
O        2.64600901      -5.91098957       1.23335256        2
H        2.74310883      -4.96491940       1.34177169        2
H        1.71811599      -6.03573651       1.03414268        2
O        4.84174605      -0.63709166       1.59912981        3
H        5.72736493      -0.97940793       1.72049954        3
H        4.36591359      -0.92023722       2.37992678        3
20
Properties=species:S:1:pos:R:3:fragment_id:I:1 config_id=dissociation__stress_dimethyl_sulfone__whole_environment__4A molecule_id=stress_dimethyl_sulfone regime=whole_environment n_solute_atoms=11 pbc="F F F"
C        1.36056946      -0.42353116       0.03232429        0
S        0.05728410       0.78043226       0.10690922        0
O        0.02797016       1.32029865       1.45213484        0
O        0.19008790       1.65049854      -1.04517368        0
C       -1.40632911      -0.19988419      -0.11772434        0
H        1.21717294      -1.14868262       0.83539551        0
H        1.33259294      -0.91359864      -0.94255167        0
H        2.31204970       0.09611812       0.16280122        0
H       -1.35261461      -0.69655516      -1.08816955        0
H       -1.46803310      -0.93163943       0.68977725        0
H       -2.27075039       0.46654362      -0.08572310        0
O       10.91073649      -7.30104022       2.62048589        1
H       10.85213622      -8.13611206       3.08465491        1
H       11.15392545      -6.66768953       3.29573241        1
O        3.51653211      -6.49350975       1.44243042        2
H        3.61363193      -5.54743958       1.55084955        2
H        2.58863909      -6.61825669       1.24322054        2
O        5.71226915      -1.21961184       1.80820767        3
H        6.59788803      -1.56192811       1.92957740        3
H        5.23643669      -1.50275740       2.58900464        3
20
Properties=species:S:1:pos:R:3:fragment_id:I:1 config_id=dissociation__stress_dimethyl_sulfone__whole_environment__5A molecule_id=stress_dimethyl_sulfone regime=whole_environment n_solute_atoms=11 pbc="F F F"
C        1.36056946      -0.42353116       0.03232429        0
S        0.05728410       0.78043226       0.10690922        0
O        0.02797016       1.32029865       1.45213484        0
O        0.19008790       1.65049854      -1.04517368        0
C       -1.40632911      -0.19988419      -0.11772434        0
H        1.21717294      -1.14868262       0.83539551        0
H        1.33259294      -0.91359864      -0.94255167        0
H        2.31204970       0.09611812       0.16280122        0
H       -1.35261461      -0.69655516      -1.08816955        0
H       -1.46803310      -0.93163943       0.68977725        0
H       -2.27075039       0.46654362      -0.08572310        0
O       11.75766051      -7.86776881       2.82389585        1
H       11.69906024      -8.70284065       3.28806487        1
H       12.00084947      -7.23441812       3.49914237        1
O        4.36345613      -7.06023834       1.64584038        2
H        4.46055595      -6.11416817       1.75425951        2
H        3.43556311      -7.18498528       1.44663050        2
O        6.55919317      -1.78634043       2.01161763        3
H        7.44481205      -2.12865670       2.13298736        3
H        6.08336071      -2.06948599       2.79241460        3
20
Properties=species:S:1:pos:R:3:fragment_id:I:1 config_id=dissociation__stress_dimethyl_sulfone__whole_environment__6A molecule_id=stress_dimethyl_sulfone regime=whole_environment n_solute_atoms=11 pbc="F F F"
C        1.36056946      -0.42353116       0.03232429        0
S        0.05728410       0.78043226       0.10690922        0
O        0.02797016       1.32029865       1.45213484        0
O        0.19008790       1.65049854      -1.04517368        0
C       -1.40632911      -0.19988419      -0.11772434        0
H        1.21717294      -1.14868262       0.83539551        0
H        1.33259294      -0.91359864      -0.94255167        0
H        2.31204970       0.09611812       0.16280122        0
H       -1.35261461      -0.69655516      -1.08816955        0
H       -1.46803310      -0.93163943       0.68977725        0
H       -2.27075039       0.46654362      -0.08572310        0
O       12.59352297      -8.42709544       3.02464910        1
H       12.53492270      -9.26216728       3.48881812        1
H       12.83671193      -7.79374475       3.69989562        1
O        5.19931859      -7.61956497       1.84659363        2
H        5.29641841      -6.67349480       1.95501276        2
H        4.27142557      -7.74431191       1.64738375        2
O        7.39505563      -2.34566706       2.21237088        3
H        8.28067451      -2.68798333       2.33374061        3
H        6.91922317      -2.62881262       2.99316785        3
20
Properties=species:S:1:pos:R:3:fragment_id:I:1 config_id=dissociation__stress_dimethyl_sulfone__whole_environment__8A molecule_id=stress_dimethyl_sulfone regime=whole_environment n_solute_atoms=11 pbc="F F F"
C        1.36056946      -0.42353116       0.03232429        0
S        0.05728410       0.78043226       0.10690922        0
O        0.02797016       1.32029865       1.45213484        0
O        0.19008790       1.65049854      -1.04517368        0
C       -1.40632911      -0.19988419      -0.11772434        0
H        1.21717294      -1.14868262       0.83539551        0
H        1.33259294      -0.91359864      -0.94255167        0
H        2.31204970       0.09611812       0.16280122        0
H       -1.35261461      -0.69655516      -1.08816955        0
H       -1.46803310      -0.93163943       0.68977725        0
H       -2.27075039       0.46654362      -0.08572310        0
O       14.24924579      -9.53504071       3.42231229        1
H       14.19064552     -10.37011255       3.88648131        1
H       14.49243475      -8.90169002       4.09755881        1
O        6.85504141      -8.72751024       2.24425682        2
H        6.95214123      -7.78144007       2.35267595        2
H        5.92714839      -8.85225718       2.04504694        2
O        9.05077845      -3.45361233       2.61003407        3
H        9.93639733      -3.79592860       2.73140380        3
H        8.57494599      -3.73675789       3.39083104        3
20
Properties=species:S:1:pos:R:3:fragment_id:I:1 config_id=dissociation__stress_dimethyl_sulfone__whole_environment__10A molecule_id=stress_dimethyl_sulfone regime=whole_environment n_solute_atoms=11 pbc="F F F"
C        1.36056946      -0.42353116       0.03232429        0
S        0.05728410       0.78043226       0.10690922        0
O        0.02797016       1.32029865       1.45213484        0
O        0.19008790       1.65049854      -1.04517368        0
C       -1.40632911      -0.19988419      -0.11772434        0
H        1.21717294      -1.14868262       0.83539551        0
H        1.33259294      -0.91359864      -0.94255167        0
H        2.31204970       0.09611812       0.16280122        0
H       -1.35261461      -0.69655516      -1.08816955        0
H       -1.46803310      -0.93163943       0.68977725        0
H       -2.27075039       0.46654362      -0.08572310        0
O       15.89453938     -10.63600715       3.81747065        1
H       15.83593911     -11.47107899       4.28163967        1
H       16.13772834     -10.00265646       4.49271717        1
O        8.50033500      -9.82847668       2.63941518        2
H        8.59743482      -8.88240651       2.74783431        2
H        7.57244198      -9.95322362       2.44020530        2
O       10.69607204      -4.55457877       3.00519243        3
H       11.58169092      -4.89689504       3.12656216        3
H       10.22023958      -4.83772433       3.78598940        3
20
Properties=species:S:1:pos:R:3:fragment_id:I:1 config_id=dissociation__stress_dimethyl_sulfone__whole_environment__15A molecule_id=stress_dimethyl_sulfone regime=whole_environment n_solute_atoms=11 pbc="F F F"
C        1.36056946      -0.42353116       0.03232429        0
S        0.05728410       0.78043226       0.10690922        0
O        0.02797016       1.32029865       1.45213484        0
O        0.19008790       1.65049854      -1.04517368        0
C       -1.40632911      -0.19988419      -0.11772434        0
H        1.21717294      -1.14868262       0.83539551        0
H        1.33259294      -0.91359864      -0.94255167        0
H        2.31204970       0.09611812       0.16280122        0
H       -1.35261461      -0.69655516      -1.08816955        0
H       -1.46803310      -0.93163943       0.68977725        0
H       -2.27075039       0.46654362      -0.08572310        0
O       20.01173232     -13.39107243       4.80631737        1
H       19.95313205     -14.22614427       5.27048639        1
H       20.25492128     -12.75772174       5.48156389        1
O       12.61752794     -12.58354196       3.62826190        2
H       12.71462776     -11.63747179       3.73668103        2
H       11.68963492     -12.70828890       3.42905202        2
O       14.81326498      -7.30964405       3.99403915        3
H       15.69888386      -7.65196032       4.11540888        3
H       14.33743252      -7.59278961       4.77483612        3
20
Properties=species:S:1:pos:R:3:fragment_id:I:1 config_id=dissociation__stress_dimethyl_sulfone__whole_environment__20A molecule_id=stress_dimethyl_sulfone regime=whole_environment n_solute_atoms=11 pbc="F F F"
C        1.36056946      -0.42353116       0.03232429        0
S        0.05728410       0.78043226       0.10690922        0
O        0.02797016       1.32029865       1.45213484        0
O        0.19008790       1.65049854      -1.04517368        0
C       -1.40632911      -0.19988419      -0.11772434        0
H        1.21717294      -1.14868262       0.83539551        0
H        1.33259294      -0.91359864      -0.94255167        0
H        2.31204970       0.09611812       0.16280122        0
H       -1.35261461      -0.69655516      -1.08816955        0
H       -1.46803310      -0.93163943       0.68977725        0
H       -2.27075039       0.46654362      -0.08572310        0
O       24.10788739     -16.13205998       5.79011132        1
H       24.04928712     -16.96713182       6.25428034        1
H       24.35107635     -15.49870929       6.46535784        1
O       16.71368301     -15.32452951       4.61205585        2
H       16.81078283     -14.37845934       4.72047498        2
H       15.78578999     -15.44927645       4.41284597        2
O       18.90942005     -10.05063160       4.97783310        3
H       19.79503893     -10.39294787       5.09920283        3
H       18.43358759     -10.33377716       5.75863007        3
13
Properties=species:S:1:pos:R:3:fragment_id:I:1 config_id=dissociation__stress_methanesulfonamide__single_water__3A molecule_id=stress_methanesulfonamide regime=single_water n_solute_atoms=10 pbc="F F F"
C       -1.29752624      -0.31432314       0.07438361        0
S        0.19228231       0.64338671      -0.09761863        0
O        0.29594739       1.13612332      -1.45030644        0
O        0.35147654       1.49942606       1.05353476        0
N        1.37468474      -0.53513056       0.04715927        0
H       -1.29796966      -0.79497464       1.05432818        0
H       -2.14633726       0.36812632      -0.00581235        0
H       -1.33749119      -1.05353679      -0.72766566        0
H        1.91373278      -0.59711652      -0.81872473        0
H        1.95120059      -0.35198074       0.87072198        0
O        2.12929042       3.48984580      -1.76470079        1
H        3.08343720       3.49933212      -1.84050165        1
H        1.91443507       4.31778713      -1.33507052        1
13
Properties=species:S:1:pos:R:3:fragment_id:I:1 config_id=dissociation__stress_methanesulfonamide__single_water__4A molecule_id=stress_methanesulfonamide regime=single_water n_solute_atoms=10 pbc="F F F"
C       -1.29752624      -0.31432314       0.07438361        0
S        0.19228231       0.64338671      -0.09761863        0
O        0.29594739       1.13612332      -1.45030644        0
O        0.35147654       1.49942606       1.05353476        0
N        1.37468474      -0.53513056       0.04715927        0
H       -1.29796966      -0.79497464       1.05432818        0
H       -2.14633726       0.36812632      -0.00581235        0
H       -1.33749119      -1.05353679      -0.72766566        0
H        1.91373278      -0.59711652      -0.81872473        0
H        1.95120059      -0.35198074       0.87072198        0
O        2.62653211       4.30481063      -2.17680183        1
H        3.58067889       4.31429695      -2.25260269        1
H        2.41167676       5.13275196      -1.74717156        1
13
Properties=species:S:1:pos:R:3:fragment_id:I:1 config_id=dissociation__stress_methanesulfonamide__single_water__5A molecule_id=stress_methanesulfonamide regime=single_water n_solute_atoms=10 pbc="F F F"
C       -1.29752624      -0.31432314       0.07438361        0
S        0.19228231       0.64338671      -0.09761863        0
O        0.29594739       1.13612332      -1.45030644        0
O        0.35147654       1.49942606       1.05353476        0
N        1.37468474      -0.53513056       0.04715927        0
H       -1.29796966      -0.79497464       1.05432818        0
H       -2.14633726       0.36812632      -0.00581235        0
H       -1.33749119      -1.05353679      -0.72766566        0
H        1.91373278      -0.59711652      -0.81872473        0
H        1.95120059      -0.35198074       0.87072198        0
O        3.11587319       5.10682659      -2.58235505        1
H        4.07001997       5.11631291      -2.65815591        1
H        2.90101784       5.93476792      -2.15272478        1
13
Properties=species:S:1:pos:R:3:fragment_id:I:1 config_id=dissociation__stress_methanesulfonamide__single_water__6A molecule_id=stress_methanesulfonamide regime=single_water n_solute_atoms=10 pbc="F F F"
C       -1.29752624      -0.31432314       0.07438361        0
S        0.19228231       0.64338671      -0.09761863        0
O        0.29594739       1.13612332      -1.45030644        0
O        0.35147654       1.49942606       1.05353476        0
N        1.37468474      -0.53513056       0.04715927        0
H       -1.29796966      -0.79497464       1.05432818        0
H       -2.14633726       0.36812632      -0.00581235        0
H       -1.33749119      -1.05353679      -0.72766566        0
H        1.91373278      -0.59711652      -0.81872473        0
H        1.95120059      -0.35198074       0.87072198        0
O        3.60141049       5.90260828      -2.98475580        1
H        4.55555727       5.91209460      -3.06055666        1
H        3.38655514       6.73054961      -2.55512553        1
13
Properties=species:S:1:pos:R:3:fragment_id:I:1 config_id=dissociation__stress_methanesulfonamide__single_water__8A molecule_id=stress_methanesulfonamide regime=single_water n_solute_atoms=10 pbc="F F F"
C       -1.29752624      -0.31432314       0.07438361        0
S        0.19228231       0.64338671      -0.09761863        0
O        0.29594739       1.13612332      -1.45030644        0
O        0.35147654       1.49942606       1.05353476        0
N        1.37468474      -0.53513056       0.04715927        0
H       -1.29796966      -0.79497464       1.05432818        0
H       -2.14633726       0.36812632      -0.00581235        0
H       -1.33749119      -1.05353679      -0.72766566        0
H        1.91373278      -0.59711652      -0.81872473        0
H        1.95120059      -0.35198074       0.87072198        0
O        4.56690127       7.48501990      -3.78492957        1
H        5.52104805       7.49450622      -3.86073043        1
H        4.35204592       8.31296123      -3.35529930        1
13
Properties=species:S:1:pos:R:3:fragment_id:I:1 config_id=dissociation__stress_methanesulfonamide__single_water__10A molecule_id=stress_methanesulfonamide regime=single_water n_solute_atoms=10 pbc="F F F"
C       -1.29752624      -0.31432314       0.07438361        0
S        0.19228231       0.64338671      -0.09761863        0
O        0.29594739       1.13612332      -1.45030644        0
O        0.35147654       1.49942606       1.05353476        0
N        1.37468474      -0.53513056       0.04715927        0
H       -1.29796966      -0.79497464       1.05432818        0
H       -2.14633726       0.36812632      -0.00581235        0
H       -1.33749119      -1.05353679      -0.72766566        0
H        1.91373278      -0.59711652      -0.81872473        0
H        1.95120059      -0.35198074       0.87072198        0
O        5.52871979       9.06141281      -4.58205986        1
H        6.48286657       9.07089913      -4.65786072        1
H        5.31386444       9.88935414      -4.15242959        1
13
Properties=species:S:1:pos:R:3:fragment_id:I:1 config_id=dissociation__stress_methanesulfonamide__single_water__15A molecule_id=stress_methanesulfonamide regime=single_water n_solute_atoms=10 pbc="F F F"
C       -1.29752624      -0.31432314       0.07438361        0
S        0.19228231       0.64338671      -0.09761863        0
O        0.29594739       1.13612332      -1.45030644        0
O        0.35147654       1.49942606       1.05353476        0
N        1.37468474      -0.53513056       0.04715927        0
H       -1.29796966      -0.79497464       1.05432818        0
H       -2.14633726       0.36812632      -0.00581235        0
H       -1.33749119      -1.05353679      -0.72766566        0
H        1.91373278      -0.59711652      -0.81872473        0
H        1.95120059      -0.35198074       0.87072198        0
O        7.92690647      12.99197185      -6.56961491        1
H        8.88105325      13.00145817      -6.64541577        1
H        7.71205112      13.81991318      -6.13998464        1
13
Properties=species:S:1:pos:R:3:fragment_id:I:1 config_id=dissociation__stress_methanesulfonamide__single_water__20A molecule_id=stress_methanesulfonamide regime=single_water n_solute_atoms=10 pbc="F F F"
C       -1.29752624      -0.31432314       0.07438361        0
S        0.19228231       0.64338671      -0.09761863        0
O        0.29594739       1.13612332      -1.45030644        0
O        0.35147654       1.49942606       1.05353476        0
N        1.37468474      -0.53513056       0.04715927        0
H       -1.29796966      -0.79497464       1.05432818        0
H       -2.14633726       0.36812632      -0.00581235        0
H       -1.33749119      -1.05353679      -0.72766566        0
H        1.91373278      -0.59711652      -0.81872473        0
H        1.95120059      -0.35198074       0.87072198        0
O       10.32148014      16.91660925      -8.55417559        1
H       11.27562692      16.92609557      -8.62997645        1
H       10.10662479      17.74455058      -8.12454532        1
19
Properties=species:S:1:pos:R:3:fragment_id:I:1 config_id=dissociation__stress_methanesulfonamide__whole_environment__3A molecule_id=stress_methanesulfonamide regime=whole_environment n_solute_atoms=10 pbc="F F F"
C       -1.29752624      -0.31432314       0.07438361        0
S        0.19228231       0.64338671      -0.09761863        0
O        0.29594739       1.13612332      -1.45030644        0
O        0.35147654       1.49942606       1.05353476        0
N        1.37468474      -0.53513056       0.04715927        0
H       -1.29796966      -0.79497464       1.05432818        0
H       -2.14633726       0.36812632      -0.00581235        0
H       -1.33749119      -1.05353679      -0.72766566        0
H        1.91373278      -0.59711652      -0.81872473        0
H        1.95120059      -0.35198074       0.87072198        0
O        4.17802293       6.84765949      -3.46263727        1
H        5.13216971       6.85714581      -3.53843813        1
H        3.96316758       7.67560082      -3.03300700        1
O        6.08393639       2.49673934      -2.34375479        2
H        6.50716821       2.54685614      -1.48666963        2
H        6.68627989       2.94748133      -2.93557047        2
O       -1.54420878       2.52641266      -3.70846481        3
H       -0.73436440       3.01223048      -3.55237199        3
H       -1.64090597       2.52072940      -4.66075111        3
19
Properties=species:S:1:pos:R:3:fragment_id:I:1 config_id=dissociation__stress_methanesulfonamide__whole_environment__4A molecule_id=stress_methanesulfonamide regime=whole_environment n_solute_atoms=10 pbc="F F F"
C       -1.29752624      -0.31432314       0.07438361        0
S        0.19228231       0.64338671      -0.09761863        0
O        0.29594739       1.13612332      -1.45030644        0
O        0.35147654       1.49942606       1.05353476        0
N        1.37468474      -0.53513056       0.04715927        0
H       -1.29796966      -0.79497464       1.05432818        0
H       -2.14633726       0.36812632      -0.00581235        0
H       -1.33749119      -1.05353679      -0.72766566        0
H        1.91373278      -0.59711652      -0.81872473        0
H        1.95120059      -0.35198074       0.87072198        0
O        4.89694551       8.02595292      -4.05846169        1
H        5.85109229       8.03543924      -4.13426255        1
H        4.68209016       8.85389425      -3.62883142        1
O        6.80285897       3.67503277      -2.93957921        2
H        7.22609079       3.72514957      -2.08249405        2
H        7.40520247       4.12577476      -3.53139489        2
O       -0.82528620       3.70470609      -4.30428923        3
H       -0.01544182       4.19052391      -4.14819641        3
H       -0.92198339       3.69902283      -5.25657553        3
19
Properties=species:S:1:pos:R:3:fragment_id:I:1 config_id=dissociation__stress_methanesulfonamide__whole_environment__5A molecule_id=stress_methanesulfonamide regime=whole_environment n_solute_atoms=10 pbc="F F F"
C       -1.29752624      -0.31432314       0.07438361        0
S        0.19228231       0.64338671      -0.09761863        0
O        0.29594739       1.13612332      -1.45030644        0
O        0.35147654       1.49942606       1.05353476        0
N        1.37468474      -0.53513056       0.04715927        0
H       -1.29796966      -0.79497464       1.05432818        0
H       -2.14633726       0.36812632      -0.00581235        0
H       -1.33749119      -1.05353679      -0.72766566        0
H        1.91373278      -0.59711652      -0.81872473        0
H        1.95120059      -0.35198074       0.87072198        0
O        5.55069578       9.09743084      -4.60027300        1
H        6.50484256       9.10691716      -4.67607386        1
H        5.33584043       9.92537217      -4.17064273        1
O        7.45660924       4.74651069      -3.48139052        2
H        7.87984106       4.79662749      -2.62430536        2
H        8.05895274       5.19725268      -4.07320620        2
O       -0.17153593       4.77618401      -4.84610054        3
H        0.63830845       5.26200183      -4.69000772        3
H       -0.26823312       4.77050075      -5.79838684        3
19
Properties=species:S:1:pos:R:3:fragment_id:I:1 config_id=dissociation__stress_methanesulfonamide__whole_environment__6A molecule_id=stress_methanesulfonamide regime=whole_environment n_solute_atoms=10 pbc="F F F"
C       -1.29752624      -0.31432314       0.07438361        0
S        0.19228231       0.64338671      -0.09761863        0
O        0.29594739       1.13612332      -1.45030644        0
O        0.35147654       1.49942606       1.05353476        0
N        1.37468474      -0.53513056       0.04715927        0
H       -1.29796966      -0.79497464       1.05432818        0
H       -2.14633726       0.36812632      -0.00581235        0
H       -1.33749119      -1.05353679      -0.72766566        0
H        1.91373278      -0.59711652      -0.81872473        0
H        1.95120059      -0.35198074       0.87072198        0
O        6.12543742      10.03941586      -5.07660399        1
H        7.07958420      10.04890218      -5.15240485        1
H        5.91058207      10.86735719      -4.64697372        1
O        8.03135088       5.68849571      -3.95772151        2
H        8.45458270       5.73861251      -3.10063635        2
H        8.63369438       6.13923770      -4.54953719        2
O        0.40320571       5.71816903      -5.32243153        3
H        1.21305009       6.20398685      -5.16633871        3
H        0.30650852       5.71248577      -6.27471783        3
19
Properties=species:S:1:pos:R:3:fragment_id:I:1 config_id=dissociation__stress_methanesulfonamide__whole_environment__8A molecule_id=stress_methanesulfonamide regime=whole_environment n_solute_atoms=10 pbc="F F F"
C       -1.29752624      -0.31432314       0.07438361        0
S        0.19228231       0.64338671      -0.09761863        0
O        0.29594739       1.13612332      -1.45030644        0
O        0.35147654       1.49942606       1.05353476        0
N        1.37468474      -0.53513056       0.04715927        0
H       -1.29796966      -0.79497464       1.05432818        0
H       -2.14633726       0.36812632      -0.00581235        0
H       -1.33749119      -1.05353679      -0.72766566        0
H        1.91373278      -0.59711652      -0.81872473        0
H        1.95120059      -0.35198074       0.87072198        0
O        7.18979432      11.78386623      -5.95871544        1
H        8.14394110      11.79335255      -6.03451630        1
H        6.97493897      12.61180756      -5.52908517        1
O        9.09570778       7.43294608      -4.83983296        2
H        9.51893960       7.48306288      -3.98274780        2
H        9.69805128       7.88368807      -5.43164864        2
O        1.46756261       7.46261940      -6.20454298        3
H        2.27740699       7.94843722      -6.04845016        3
H        1.37086542       7.45693614      -7.15682928        3
19
Properties=species:S:1:pos:R:3:fragment_id:I:1 config_id=dissociation__stress_methanesulfonamide__whole_environment__10A molecule_id=stress_methanesulfonamide regime=whole_environment n_solute_atoms=10 pbc="F F F"
C       -1.29752624      -0.31432314       0.07438361        0
S        0.19228231       0.64338671      -0.09761863        0
O        0.29594739       1.13612332      -1.45030644        0
O        0.35147654       1.49942606       1.05353476        0
N        1.37468474      -0.53513056       0.04715927        0
H       -1.29796966      -0.79497464       1.05432818        0
H       -2.14633726       0.36812632      -0.00581235        0
H       -1.33749119      -1.05353679      -0.72766566        0
H        1.91373278      -0.59711652      -0.81872473        0
H        1.95120059      -0.35198074       0.87072198        0
O        8.20652121      13.45025237      -6.80135237        1
H        9.16066799      13.45973869      -6.87715323        1
H        7.99166586      14.27819370      -6.37172210        1
O       10.11243467       9.09933222      -5.68246989        2
H       10.53566649       9.14944902      -4.82538473        2
H       10.71477817       9.55007421      -6.27428557        2
O        2.48428950       9.12900554      -7.04717991        3
H        3.29413388       9.61482336      -6.89108709        3
H        2.38759231       9.12332228      -7.99946621        3
19
Properties=species:S:1:pos:R:3:fragment_id:I:1 config_id=dissociation__stress_methanesulfonamide__whole_environment__15A molecule_id=stress_methanesulfonamide regime=whole_environment n_solute_atoms=10 pbc="F F F"
C       -1.29752624      -0.31432314       0.07438361        0
S        0.19228231       0.64338671      -0.09761863        0
O        0.29594739       1.13612332      -1.45030644        0
O        0.35147654       1.49942606       1.05353476        0
N        1.37468474      -0.53513056       0.04715927        0
H       -1.29796966      -0.79497464       1.05432818        0
H       -2.14633726       0.36812632      -0.00581235        0
H       -1.33749119      -1.05353679      -0.72766566        0
H        1.91373278      -0.59711652      -0.81872473        0
H        1.95120059      -0.35198074       0.87072198        0
O       10.67458241      17.49533373      -8.84681761        1
H       11.62872919      17.50482005      -8.92261847        1
H       10.45972706      18.32327506      -8.41718734        1
O       12.58049587      13.14441358      -7.72793513        2
H       13.00372769      13.19453038      -6.87084997        2
H       13.18283937      13.59515557      -8.31975081        2
O        4.95235070      13.17408690      -9.09264515        3
H        5.76219508      13.65990472      -8.93655233        3
H        4.85565351      13.16840364     -10.04493145        3
19
Properties=species:S:1:pos:R:3:fragment_id:I:1 config_id=dissociation__stress_methanesulfonamide__whole_environment__20A molecule_id=stress_methanesulfonamide regime=whole_environment n_solute_atoms=10 pbc="F F F"
C       -1.29752624      -0.31432314       0.07438361        0
S        0.19228231       0.64338671      -0.09761863        0
O        0.29594739       1.13612332      -1.45030644        0
O        0.35147654       1.49942606       1.05353476        0
N        1.37468474      -0.53513056       0.04715927        0
H       -1.29796966      -0.79497464       1.05432818        0
H       -2.14633726       0.36812632      -0.00581235        0
H       -1.33749119      -1.05353679      -0.72766566        0
H        1.91373278      -0.59711652      -0.81872473        0
H        1.95120059      -0.35198074       0.87072198        0
O       13.10310537      21.47561305     -10.85951458        1
H       14.05725215      21.48509937     -10.93531544        1
H       12.88825002      22.30355438     -10.42988431        1
O       15.00901883      17.12469290      -9.74063210        2
H       15.43225065      17.17480970      -8.88354694        2
H       15.61136233      17.57543489     -10.33244778        2
O        7.38087366      17.15436622     -11.10534212        3
H        8.19071804      17.64018404     -10.94924930        3
H        7.28417647      17.14868296     -12.05762842        3
13
Properties=species:S:1:pos:R:3:fragment_id:I:1 config_id=dissociation__stress_methyl_sulfoxide__single_water__3A molecule_id=stress_methyl_sulfoxide regime=single_water n_solute_atoms=10 pbc="F F F"
C        1.33574772      -0.12709590      -0.21493118        0
S        0.07665144       0.41184762       0.96707515        0
O       -0.01327127       1.90664493       0.88010813        0
C       -1.33020716      -0.27159803       0.05791436        0
H        1.34236120      -1.21823882      -0.26836233        0
H        2.31087043       0.22364491       0.13115206        0
H        1.12755682       0.29569439      -1.20068659        0
H       -1.23071746      -1.35770665      -0.00502162        0
H       -1.37185545       0.16021845      -0.94488595        0
H       -2.24713626      -0.02341091       0.59763797        0
O       -0.07634109       5.71905972       1.43888049        1
H       -0.19082618       5.83457177       0.49559793        1
H       -0.30867078       4.80432051       1.59858941        1
13
Properties=species:S:1:pos:R:3:fragment_id:I:1 config_id=dissociation__stress_methyl_sulfoxide__single_water__4A molecule_id=stress_methyl_sulfoxide regime=single_water n_solute_atoms=10 pbc="F F F"
C        1.33574772      -0.12709590      -0.21493118        0
S        0.07665144       0.41184762       0.96707515        0
O       -0.01327127       1.90664493       0.88010813        0
C       -1.33020716      -0.27159803       0.05791436        0
H        1.34236120      -1.21823882      -0.26836233        0
H        2.31087043       0.22364491       0.13115206        0
H        1.12755682       0.29569439      -1.20068659        0
H       -1.23071746      -1.35770665      -0.00502162        0
H       -1.37185545       0.16021845      -0.94488595        0
H       -2.24713626      -0.02341091       0.59763797        0
O       -0.08932087       6.69143486       1.68352414        1
H       -0.20380596       6.80694691       0.74024158        1
H       -0.32165056       5.77669565       1.84323306        1
13
Properties=species:S:1:pos:R:3:fragment_id:I:1 config_id=dissociation__stress_methyl_sulfoxide__single_water__5A molecule_id=stress_methyl_sulfoxide regime=single_water n_solute_atoms=10 pbc="F F F"
C        1.33574772      -0.12709590      -0.21493118        0
S        0.07665144       0.41184762       0.96707515        0
O       -0.01327127       1.90664493       0.88010813        0
C       -1.33020716      -0.27159803       0.05791436        0
H        1.34236120      -1.21823882      -0.26836233        0
H        2.31087043       0.22364491       0.13115206        0
H        1.12755682       0.29569439      -1.20068659        0
H       -1.23071746      -1.35770665      -0.00502162        0
H       -1.37185545       0.16021845      -0.94488595        0
H       -2.24713626      -0.02341091       0.59763797        0
O       -0.10228632       7.66273575       1.92789751        1
H       -0.21677141       7.77824780       0.98461495        1
H       -0.33461601       6.74799654       2.08760643        1
13
Properties=species:S:1:pos:R:3:fragment_id:I:1 config_id=dissociation__stress_methyl_sulfoxide__single_water__6A molecule_id=stress_methyl_sulfoxide regime=single_water n_solute_atoms=10 pbc="F F F"
C        1.33574772      -0.12709590      -0.21493118        0
S        0.07665144       0.41184762       0.96707515        0
O       -0.01327127       1.90664493       0.88010813        0
C       -1.33020716      -0.27159803       0.05791436        0
H        1.34236120      -1.21823882      -0.26836233        0
H        2.31087043       0.22364491       0.13115206        0
H        1.12755682       0.29569439      -1.20068659        0
H       -1.23071746      -1.35770665      -0.00502162        0
H       -1.37185545       0.16021845      -0.94488595        0
H       -2.24713626      -0.02341091       0.59763797        0
O       -0.11524462       8.63350092       2.17213609        1
H       -0.22972971       8.74901297       1.22885353        1
H       -0.34757431       7.71876171       2.33184501        1
13
Properties=species:S:1:pos:R:3:fragment_id:I:1 config_id=dissociation__stress_methyl_sulfoxide__single_water__8A molecule_id=stress_methyl_sulfoxide regime=single_water n_solute_atoms=10 pbc="F F F"
C        1.33574772      -0.12709590      -0.21493118        0
S        0.07665144       0.41184762       0.96707515        0
O       -0.01327127       1.90664493       0.88010813        0
C       -1.33020716      -0.27159803       0.05791436        0
H        1.34236120      -1.21823882      -0.26836233        0
H        2.31087043       0.22364491       0.13115206        0
H        1.12755682       0.29569439      -1.20068659        0
H       -1.23071746      -1.35770665      -0.00502162        0
H       -1.37185545       0.16021845      -0.94488595        0
H       -2.24713626      -0.02341091       0.59763797        0
O       -0.14115050      10.57422892       2.66041140        1
H       -0.25563559      10.68974097       1.71712884        1
H       -0.37348019       9.65948971       2.82012032        1
13
Properties=species:S:1:pos:R:3:fragment_id:I:1 config_id=dissociation__stress_methyl_sulfoxide__single_water__10A molecule_id=stress_methyl_sulfoxide regime=single_water n_solute_atoms=10 pbc="F F F"
C        1.33574772      -0.12709590      -0.21493118        0
S        0.07665144       0.41184762       0.96707515        0
O       -0.01327127       1.90664493       0.88010813        0
C       -1.33020716      -0.27159803       0.05791436        0
H        1.34236120      -1.21823882      -0.26836233        0
H        2.31087043       0.22364491       0.13115206        0
H        1.12755682       0.29569439      -1.20068659        0
H       -1.23071746      -1.35770665      -0.00502162        0
H       -1.37185545       0.16021845      -0.94488595        0
H       -2.24713626      -0.02341091       0.59763797        0
O       -0.16704925      12.51442255       3.14855227        1
H       -0.28153434      12.62993460       2.20526971        1
H       -0.39937894      11.59968334       3.30826119        1
13
Properties=species:S:1:pos:R:3:fragment_id:I:1 config_id=dissociation__stress_methyl_sulfoxide__single_water__15A molecule_id=stress_methyl_sulfoxide regime=single_water n_solute_atoms=10 pbc="F F F"
C        1.33574772      -0.12709590      -0.21493118        0
S        0.07665144       0.41184762       0.96707515        0
O       -0.01327127       1.90664493       0.88010813        0
C       -1.33020716      -0.27159803       0.05791436        0
H        1.34236120      -1.21823882      -0.26836233        0
H        2.31087043       0.22364491       0.13115206        0
H        1.12755682       0.29569439      -1.20068659        0
H       -1.23071746      -1.35770665      -0.00502162        0
H       -1.37185545       0.16021845      -0.94488595        0
H       -2.24713626      -0.02341091       0.59763797        0
O       -0.23178365      17.36397217       4.36866933        1
H       -0.34626874      17.47948422       3.42538677        1
H       -0.46411334      16.44923296       4.52837825        1
13
Properties=species:S:1:pos:R:3:fragment_id:I:1 config_id=dissociation__stress_methyl_sulfoxide__single_water__20A molecule_id=stress_methyl_sulfoxide regime=single_water n_solute_atoms=10 pbc="F F F"
C        1.33574772      -0.12709590      -0.21493118        0
S        0.07665144       0.41184762       0.96707515        0
O       -0.01327127       1.90664493       0.88010813        0
C       -1.33020716      -0.27159803       0.05791436        0
H        1.34236120      -1.21823882      -0.26836233        0
H        2.31087043       0.22364491       0.13115206        0
H        1.12755682       0.29569439      -1.20068659        0
H       -1.23071746      -1.35770665      -0.00502162        0
H       -1.37185545       0.16021845      -0.94488595        0
H       -2.24713626      -0.02341091       0.59763797        0
O       -0.29651092      22.21298805       5.58865210        1
H       -0.41099601      22.32850010       4.64536954        1
H       -0.52884061      21.29824884       5.74836102        1
19
Properties=species:S:1:pos:R:3:fragment_id:I:1 config_id=dissociation__stress_methyl_sulfoxide__whole_environment__3A molecule_id=stress_methyl_sulfoxide regime=whole_environment n_solute_atoms=10 pbc="F F F"
C        1.33574772      -0.12709590      -0.21493118        0
S        0.07665144       0.41184762       0.96707515        0
O       -0.01327127       1.90664493       0.88010813        0
C       -1.33020716      -0.27159803       0.05791436        0
H        1.34236120      -1.21823882      -0.26836233        0
H        2.31087043       0.22364491       0.13115206        0
H        1.12755682       0.29569439      -1.20068659        0
H       -1.23071746      -1.35770665      -0.00502162        0
H       -1.37185545       0.16021845      -0.94488595        0
H       -2.24713626      -0.02341091       0.59763797        0
O       -0.10086436       7.55621022       1.90109633        1
H       -0.21534945       7.67172227       0.95781377        1
H       -0.33319405       6.64147101       2.06080525        1
O        0.51031410       1.96034947       3.98149015        2
H        1.31302827       1.88818060       4.49789450        2
H        0.50287069       2.86710549       3.67494497        2
O        5.07871525       2.78382686      -0.75001563        3
H        4.22975412       2.67933061      -0.32039095        3
H        4.86836750       3.13695312      -1.61447355        3
19
Properties=species:S:1:pos:R:3:fragment_id:I:1 config_id=dissociation__stress_methyl_sulfoxide__whole_environment__4A molecule_id=stress_methyl_sulfoxide regime=whole_environment n_solute_atoms=10 pbc="F F F"
C        1.33574772      -0.12709590      -0.21493118        0
S        0.07665144       0.41184762       0.96707515        0
O       -0.01327127       1.90664493       0.88010813        0
C       -1.33020716      -0.27159803       0.05791436        0
H        1.34236120      -1.21823882      -0.26836233        0
H        2.31087043       0.22364491       0.13115206        0
H        1.12755682       0.29569439      -1.20068659        0
H       -1.23071746      -1.35770665      -0.00502162        0
H       -1.37185545       0.16021845      -0.94488595        0
H       -2.24713626      -0.02341091       0.59763797        0
O       -0.12410737       9.29745066       2.33918179        1
H       -0.23859246       9.41296271       1.39589923        1
H       -0.35643706       8.38271145       2.49889071        1
O        0.48707109       3.70158991       4.41957561        2
H        1.28978526       3.62942104       4.93597996        2
H        0.47962768       4.60834593       4.11303043        2
O        5.05547224       4.52506730      -0.31193017        3
H        4.20651111       4.42057105       0.11769451        3
H        4.84512449       4.87819356      -1.17638809        3
19
Properties=species:S:1:pos:R:3:fragment_id:I:1 config_id=dissociation__stress_methyl_sulfoxide__whole_environment__5A molecule_id=stress_methyl_sulfoxide regime=whole_environment n_solute_atoms=10 pbc="F F F"
C        1.33574772      -0.12709590      -0.21493118        0
S        0.07665144       0.41184762       0.96707515        0
O       -0.01327127       1.90664493       0.88010813        0
C       -1.33020716      -0.27159803       0.05791436        0
H        1.34236120      -1.21823882      -0.26836233        0
H        2.31087043       0.22364491       0.13115206        0
H        1.12755682       0.29569439      -1.20068659        0
H       -1.23071746      -1.35770665      -0.00502162        0
H       -1.37185545       0.16021845      -0.94488595        0
H       -2.24713626      -0.02341091       0.59763797        0
O       -0.14184996      10.62662897       2.67359494        1
H       -0.25633505      10.74214102       1.73031238        1
H       -0.37417965       9.71188976       2.83330386        1
O        0.46932850       5.03076822       4.75398876        2
H        1.27204267       4.95859935       5.27039311        2
H        0.46188509       5.93752424       4.44744358        2
O        5.03772965       5.85424561       0.02248298        3
H        4.18876852       5.74974936       0.45210766        3
H        4.82738190       6.20737187      -0.84197494        3
19
Properties=species:S:1:pos:R:3:fragment_id:I:1 config_id=dissociation__stress_methyl_sulfoxide__whole_environment__6A molecule_id=stress_methyl_sulfoxide regime=whole_environment n_solute_atoms=10 pbc="F F F"
C        1.33574772      -0.12709590      -0.21493118        0
S        0.07665144       0.41184762       0.96707515        0
O       -0.01327127       1.90664493       0.88010813        0
C       -1.33020716      -0.27159803       0.05791436        0
H        1.34236120      -1.21823882      -0.26836233        0
H        2.31087043       0.22364491       0.13115206        0
H        1.12755682       0.29569439      -1.20068659        0
H       -1.23071746      -1.35770665      -0.00502162        0
H       -1.37185545       0.16021845      -0.94488595        0
H       -2.24713626      -0.02341091       0.59763797        0
O       -0.15742792      11.79364515       2.96720908        1
H       -0.27191301      11.90915720       2.02392652        1
H       -0.38975761      10.87890594       3.12691800        1
O        0.45375054       6.19778440       5.04760290        2
H        1.25646471       6.12561553       5.56400725        2
H        0.44630713       7.10454042       4.74105772        2
O        5.02215169       7.02126179       0.31609712        3
H        4.17319056       6.91676554       0.74572180        3
H        4.81180394       7.37438805      -0.54836080        3
19
Properties=species:S:1:pos:R:3:fragment_id:I:1 config_id=dissociation__stress_methyl_sulfoxide__whole_environment__8A molecule_id=stress_methyl_sulfoxide regime=whole_environment n_solute_atoms=10 pbc="F F F"
C        1.33574772      -0.12709590      -0.21493118        0
S        0.07665144       0.41184762       0.96707515        0
O       -0.01327127       1.90664493       0.88010813        0
C       -1.33020716      -0.27159803       0.05791436        0
H        1.34236120      -1.21823882      -0.26836233        0
H        2.31087043       0.22364491       0.13115206        0
H        1.12755682       0.29569439      -1.20068659        0
H       -1.23071746      -1.35770665      -0.00502162        0
H       -1.37185545       0.16021845      -0.94488595        0
H       -2.24713626      -0.02341091       0.59763797        0
O       -0.18625889      13.95350474       3.51061656        1
H       -0.30074398      14.06901679       2.56733400        1
H       -0.41858858      13.03876553       3.67032548        1
O        0.42491957       8.35764399       5.59101038        2
H        1.22763374       8.28547512       6.10741473        2
H        0.41747616       9.26440001       5.28446520        2
O        4.99332072       9.18112138       0.85950460        3
H        4.14435959       9.07662513       1.28912928        3
H        4.78297297       9.53424764      -0.00495332        3
19
Properties=species:S:1:pos:R:3:fragment_id:I:1 config_id=dissociation__stress_methyl_sulfoxide__whole_environment__10A molecule_id=stress_methyl_sulfoxide regime=whole_environment n_solute_atoms=10 pbc="F F F"
C        1.33574772      -0.12709590      -0.21493118        0
S        0.07665144       0.41184762       0.96707515        0
O       -0.01327127       1.90664493       0.88010813        0
C       -1.33020716      -0.27159803       0.05791436        0
H        1.34236120      -1.21823882      -0.26836233        0
H        2.31087043       0.22364491       0.13115206        0
H        1.12755682       0.29569439      -1.20068659        0
H       -1.23071746      -1.35770665      -0.00502162        0
H       -1.37185545       0.16021845      -0.94488595        0
H       -2.24713626      -0.02341091       0.59763797        0
O       -0.21379075      16.01604196       4.02953832        1
H       -0.32827584      16.13155401       3.08625576        1
H       -0.44612044      15.10130275       4.18924724        1
O        0.39738771      10.42018121       6.10993214        2
H        1.20010188      10.34801234       6.62633649        2
H        0.38994430      11.32693723       5.80338696        2
O        4.96578886      11.24365860       1.37842636        3
H        4.11682773      11.13916235       1.80805104        3
H        4.75544111      11.59678486       0.51396844        3
19
Properties=species:S:1:pos:R:3:fragment_id:I:1 config_id=dissociation__stress_methyl_sulfoxide__whole_environment__15A molecule_id=stress_methyl_sulfoxide regime=whole_environment n_solute_atoms=10 pbc="F F F"
C        1.33574772      -0.12709590      -0.21493118        0
S        0.07665144       0.41184762       0.96707515        0
O       -0.01327127       1.90664493       0.88010813        0
C       -1.33020716      -0.27159803       0.05791436        0
H        1.34236120      -1.21823882      -0.26836233        0
H        2.31087043       0.22364491       0.13115206        0
H        1.12755682       0.29569439      -1.20068659        0
H       -1.23071746      -1.35770665      -0.00502162        0
H       -1.37185545       0.16021845      -0.94488595        0
H       -2.24713626      -0.02341091       0.59763797        0
O       -0.28105220      21.05490486       5.29728545        1
H       -0.39553729      21.17041691       4.35400289        1
H       -0.51338189      20.14016565       5.45699437        1
O        0.33012626      15.45904411       7.37767927        2
H        1.13284043      15.38687524       7.89408362        2
H        0.32268285      16.36580013       7.07113409        2
O        4.89852741      16.28252150       2.64617349        3
H        4.04956628      16.17802525       3.07579817        3
H        4.68817966      16.63564776       1.78171557        3
19
Properties=species:S:1:pos:R:3:fragment_id:I:1 config_id=dissociation__stress_methyl_sulfoxide__whole_environment__20A molecule_id=stress_methyl_sulfoxide regime=whole_environment n_solute_atoms=10 pbc="F F F"
C        1.33574772      -0.12709590      -0.21493118        0
S        0.07665144       0.41184762       0.96707515        0
O       -0.01327127       1.90664493       0.88010813        0
C       -1.33020716      -0.27159803       0.05791436        0
H        1.34236120      -1.21823882      -0.26836233        0
H        2.31087043       0.22364491       0.13115206        0
H        1.12755682       0.29569439      -1.20068659        0
H       -1.23071746      -1.35770665      -0.00502162        0
H       -1.37185545       0.16021845      -0.94488595        0
H       -2.24713626      -0.02341091       0.59763797        0
O       -0.34803314      26.07275285       6.55974535        1
H       -0.46251823      26.18826490       5.61646279        1
H       -0.58036283      25.15801364       6.71945427        1
O        0.26314532      20.47689210       8.64013917        2
H        1.06585949      20.40472323       9.15654352        2
H        0.25570191      21.38364812       8.33359399        2
O        4.83154647      21.30036949       3.90863339        3
H        3.98258534      21.19587324       4.33825807        3
H        4.62119872      21.65349575       3.04417547        3
13
Properties=species:S:1:pos:R:3:fragment_id:I:1 config_id=dissociation__stress_nitroethane__single_water__3A molecule_id=stress_nitroethane regime=single_water n_solute_atoms=10 pbc="F F F"
C       -1.08655935      -0.26912393       0.19921890        0
C        0.07989359       0.51994263      -0.35712221        0
N        1.35131897      -0.14039219       0.07755178        0
O        1.84023896       0.23136064       1.15159617        0
O        1.81524379      -1.01344334      -0.66633626        0
H       -1.08003052      -1.30191745      -0.16584906        0
H       -1.05995946      -0.30242604       1.29382519        0
H       -2.03250044       0.19100393      -0.10284164        0
H        0.09629761       1.54650252       0.02103456        0
H        0.07605685       0.53849323      -1.45107745        0
O        4.85593382      -0.20144818       2.49871899        1
H        4.62423198       0.67066717       2.17940579        1
H        5.77430902      -0.12599579       2.75780543        1
13
Properties=species:S:1:pos:R:3:fragment_id:I:1 config_id=dissociation__stress_nitroethane__single_water__4A molecule_id=stress_nitroethane regime=single_water n_solute_atoms=10 pbc="F F F"
C       -1.08655935      -0.26912393       0.19921890        0
C        0.07989359       0.51994263      -0.35712221        0
N        1.35131897      -0.14039219       0.07755178        0
O        1.84023896       0.23136064       1.15159617        0
O        1.81524379      -1.01344334      -0.66633626        0
H       -1.08003052      -1.30191745      -0.16584906        0
H       -1.05995946      -0.30242604       1.29382519        0
H       -2.03250044       0.19100393      -0.10284164        0
H        0.09629761       1.54650252       0.02103456        0
H        0.07605685       0.53849323      -1.45107745        0
O        5.76086490      -0.23898920       2.96436959        1
H        5.52916306       0.63312615       2.64505639        1
H        6.67924010      -0.16353681       3.22345603        1
13
Properties=species:S:1:pos:R:3:fragment_id:I:1 config_id=dissociation__stress_nitroethane__single_water__5A molecule_id=stress_nitroethane regime=single_water n_solute_atoms=10 pbc="F F F"
C       -1.08655935      -0.26912393       0.19921890        0
C        0.07989359       0.51994263      -0.35712221        0
N        1.35131897      -0.14039219       0.07755178        0
O        1.84023896       0.23136064       1.15159617        0
O        1.81524379      -1.01344334      -0.66633626        0
H       -1.08003052      -1.30191745      -0.16584906        0
H       -1.05995946      -0.30242604       1.29382519        0
H       -2.03250044       0.19100393      -0.10284164        0
H        0.09629761       1.54650252       0.02103456        0
H        0.07605685       0.53849323      -1.45107745        0
O        6.65914320      -0.27625423       3.42659686        1
H        6.42744136       0.59586112       3.10728366        1
H        7.57751840      -0.20080184       3.68568330        1
13
Properties=species:S:1:pos:R:3:fragment_id:I:1 config_id=dissociation__stress_nitroethane__single_water__6A molecule_id=stress_nitroethane regime=single_water n_solute_atoms=10 pbc="F F F"
C       -1.08655935      -0.26912393       0.19921890        0
C        0.07989359       0.51994263      -0.35712221        0
N        1.35131897      -0.14039219       0.07755178        0
O        1.84023896       0.23136064       1.15159617        0
O        1.81524379      -1.01344334      -0.66633626        0
H       -1.08003052      -1.30191745      -0.16584906        0
H       -1.05995946      -0.30242604       1.29382519        0
H       -2.03250044       0.19100393      -0.10284164        0
H        0.09629761       1.54650252       0.02103456        0
H        0.07605685       0.53849323      -1.45107745        0
O        7.55415272      -0.31338366       3.88714212        1
H        7.32245088       0.55873169       3.56782892        1
H        8.47252792      -0.23793127       4.14622856        1
13
Properties=species:S:1:pos:R:3:fragment_id:I:1 config_id=dissociation__stress_nitroethane__single_water__8A molecule_id=stress_nitroethane regime=single_water n_solute_atoms=10 pbc="F F F"
C       -1.08655935      -0.26912393       0.19921890        0
C        0.07989359       0.51994263      -0.35712221        0
N        1.35131897      -0.14039219       0.07755178        0
O        1.84023896       0.23136064       1.15159617        0
O        1.81524379      -1.01344334      -0.66633626        0
H       -1.08003052      -1.30191745      -0.16584906        0
H       -1.05995946      -0.30242604       1.29382519        0
H       -2.03250044       0.19100393      -0.10284164        0
H        0.09629761       1.54650252       0.02103456        0
H        0.07605685       0.53849323      -1.45107745        0
O        9.33931793      -0.38744115       4.80573499        1
H        9.10761609       0.48467420       4.48642179        1
H       10.25769313      -0.31198876       5.06482143        1
13
Properties=species:S:1:pos:R:3:fragment_id:I:1 config_id=dissociation__stress_nitroethane__single_water__10A molecule_id=stress_nitroethane regime=single_water n_solute_atoms=10 pbc="F F F"
C       -1.08655935      -0.26912393       0.19921890        0
C        0.07989359       0.51994263      -0.35712221        0
N        1.35131897      -0.14039219       0.07755178        0
O        1.84023896       0.23136064       1.15159617        0
O        1.81524379      -1.01344334      -0.66633626        0
H       -1.08003052      -1.30191745      -0.16584906        0
H       -1.05995946      -0.30242604       1.29382519        0
H       -2.03250044       0.19100393      -0.10284164        0
H        0.09629761       1.54650252       0.02103456        0
H        0.07605685       0.53849323      -1.45107745        0
O       11.12126795      -0.46136526       5.72267343        1
H       10.88956611       0.41075009       5.40336023        1
H       12.03964315      -0.38591287       5.98175987        1
13
Properties=species:S:1:pos:R:3:fragment_id:I:1 config_id=dissociation__stress_nitroethane__single_water__15A molecule_id=stress_nitroethane regime=single_water n_solute_atoms=10 pbc="F F F"
C       -1.08655935      -0.26912393       0.19921890        0
C        0.07989359       0.51994263      -0.35712221        0
N        1.35131897      -0.14039219       0.07755178        0
O        1.84023896       0.23136064       1.15159617        0
O        1.81524379      -1.01344334      -0.66633626        0
H       -1.08003052      -1.30191745      -0.16584906        0
H       -1.05995946      -0.30242604       1.29382519        0
H       -2.03250044       0.19100393      -0.10284164        0
H        0.09629761       1.54650252       0.02103456        0
H        0.07605685       0.53849323      -1.45107745        0
O       15.57054421      -0.64594327       8.01213855        1
H       15.33884237       0.22617208       7.69282535        1
H       16.48891941      -0.57049088       8.27122499        1
13
Properties=species:S:1:pos:R:3:fragment_id:I:1 config_id=dissociation__stress_nitroethane__single_water__20A molecule_id=stress_nitroethane regime=single_water n_solute_atoms=10 pbc="F F F"
C       -1.08655935      -0.26912393       0.19921890        0
C        0.07989359       0.51994263      -0.35712221        0
N        1.35131897      -0.14039219       0.07755178        0
O        1.84023896       0.23136064       1.15159617        0
O        1.81524379      -1.01344334      -0.66633626        0
H       -1.08003052      -1.30191745      -0.16584906        0
H       -1.05995946      -0.30242604       1.29382519        0
H       -2.03250044       0.19100393      -0.10284164        0
H        0.09629761       1.54650252       0.02103456        0
H        0.07605685       0.53849323      -1.45107745        0
O       20.01662998      -0.83038892      10.29996194        1
H       19.78492814       0.04172643       9.98064874        1
H       20.93500518      -0.75493653      10.55904838        1
19
Properties=species:S:1:pos:R:3:fragment_id:I:1 config_id=dissociation__stress_nitroethane__whole_environment__3A molecule_id=stress_nitroethane regime=whole_environment n_solute_atoms=10 pbc="F F F"
C       -1.08655935      -0.26912393       0.19921890        0
C        0.07989359       0.51994263      -0.35712221        0
N        1.35131897      -0.14039219       0.07755178        0
O        1.84023896       0.23136064       1.15159617        0
O        1.81524379      -1.01344334      -0.66633626        0
H       -1.08003052      -1.30191745      -0.16584906        0
H       -1.05995946      -0.30242604       1.29382519        0
H       -2.03250044       0.19100393      -0.10284164        0
H        0.09629761       1.54650252       0.02103456        0
H        0.07605685       0.53849323      -1.45107745        0
O       10.48444847      -0.43494683       5.39498508        1
H       10.25274663       0.43716852       5.07567188        1
H       11.40282367      -0.35949444       5.65407152        1
O        9.90412823      -1.64930104       1.51585059        2
H       10.11042352      -2.52088647       1.85350860        2
H       10.54556933      -1.50328809       0.82053385        2
O        2.67978759      -0.97132256       3.76860041        3
H        3.38178731      -1.54094041       4.08318543        3
H        2.35992757      -0.52822550       4.55446707        3
19
Properties=species:S:1:pos:R:3:fragment_id:I:1 config_id=dissociation__stress_nitroethane__whole_environment__4A molecule_id=stress_nitroethane regime=whole_environment n_solute_atoms=10 pbc="F F F"
C       -1.08655935      -0.26912393       0.19921890        0
C        0.07989359       0.51994263      -0.35712221        0
N        1.35131897      -0.14039219       0.07755178        0
O        1.84023896       0.23136064       1.15159617        0
O        1.81524379      -1.01344334      -0.66633626        0
H       -1.08003052      -1.30191745      -0.16584906        0
H       -1.05995946      -0.30242604       1.29382519        0
H       -2.03250044       0.19100393      -0.10284164        0
H        0.09629761       1.54650252       0.02103456        0
H        0.07605685       0.53849323      -1.45107745        0
O       11.65899986      -0.48367304       5.99937426        1
H       11.42729802       0.38844231       5.68006106        1
H       12.57737506      -0.40822065       6.25846070        1
O       11.07867962      -1.69802725       2.12023977        2
H       11.28497491      -2.56961268       2.45789778        2
H       11.72012072      -1.55201430       1.42492303        2
O        3.85433898      -1.02004877       4.37298959        3
H        4.55633870      -1.58966662       4.68757461        3
H        3.53447896      -0.57695171       5.15885625        3
19
Properties=species:S:1:pos:R:3:fragment_id:I:1 config_id=dissociation__stress_nitroethane__whole_environment__5A molecule_id=stress_nitroethane regime=whole_environment n_solute_atoms=10 pbc="F F F"
C       -1.08655935      -0.26912393       0.19921890        0
C        0.07989359       0.51994263      -0.35712221        0
N        1.35131897      -0.14039219       0.07755178        0
O        1.84023896       0.23136064       1.15159617        0
O        1.81524379      -1.01344334      -0.66633626        0
H       -1.08003052      -1.30191745      -0.16584906        0
H       -1.05995946      -0.30242604       1.29382519        0
H       -2.03250044       0.19100393      -0.10284164        0
H        0.09629761       1.54650252       0.02103456        0
H        0.07605685       0.53849323      -1.45107745        0
O       12.68757282      -0.52634334       6.52864729        1
H       12.45587098       0.34577201       6.20933409        1
H       13.60594802      -0.45089095       6.78773373        1
O       12.10725258      -1.74069755       2.64951280        2
H       12.31354787      -2.61228298       2.98717081        2
H       12.74869368      -1.59468460       1.95419606        2
O        4.88291194      -1.06271907       4.90226262        3
H        5.58491166      -1.63233692       5.21684764        3
H        4.56305192      -0.61962201       5.68812928        3
19
Properties=species:S:1:pos:R:3:fragment_id:I:1 config_id=dissociation__stress_nitroethane__whole_environment__6A molecule_id=stress_nitroethane regime=whole_environment n_solute_atoms=10 pbc="F F F"
C       -1.08655935      -0.26912393       0.19921890        0
C        0.07989359       0.51994263      -0.35712221        0
N        1.35131897      -0.14039219       0.07755178        0
O        1.84023896       0.23136064       1.15159617        0
O        1.81524379      -1.01344334      -0.66633626        0
H       -1.08003052      -1.30191745      -0.16584906        0
H       -1.05995946      -0.30242604       1.29382519        0
H       -2.03250044       0.19100393      -0.10284164        0
H        0.09629761       1.54650252       0.02103456        0
H        0.07605685       0.53849323      -1.45107745        0
O       13.66214707      -0.56677351       7.03013419        1
H       13.43044523       0.30534184       6.71082099        1
H       14.58052227      -0.49132112       7.28922063        1
O       13.08182683      -1.78112772       3.15099970        2
H       13.28812212      -2.65271315       3.48865771        2
H       13.72326793      -1.63511477       2.45568296        2
O        5.85748619      -1.10314924       5.40374952        3
H        6.55948591      -1.67276709       5.71833454        3
H        5.53762617      -0.66005218       6.18961618        3
19
Properties=species:S:1:pos:R:3:fragment_id:I:1 config_id=dissociation__stress_nitroethane__whole_environment__8A molecule_id=stress_nitroethane regime=whole_environment n_solute_atoms=10 pbc="F F F"
C       -1.08655935      -0.26912393       0.19921890        0
C        0.07989359       0.51994263      -0.35712221        0
N        1.35131897      -0.14039219       0.07755178        0
O        1.84023896       0.23136064       1.15159617        0
O        1.81524379      -1.01344334      -0.66633626        0
H       -1.08003052      -1.30191745      -0.16584906        0
H       -1.05995946      -0.30242604       1.29382519        0
H       -2.03250044       0.19100393      -0.10284164        0
H        0.09629761       1.54650252       0.02103456        0
H        0.07605685       0.53849323      -1.45107745        0
O       15.54120160      -0.64472599       7.99703972        1
H       15.30949976       0.22738936       7.67772652        1
H       16.45957680      -0.56927360       8.25612616        1
O       14.96088136      -1.85908020       4.11790523        2
H       15.16717665      -2.73066563       4.45556324        2
H       15.60232246      -1.71306725       3.42258849        2
O        7.73654072      -1.18110172       6.37065505        3
H        8.43854044      -1.75071957       6.68524007        3
H        7.41668070      -0.73800466       7.15652171        3
19
Properties=species:S:1:pos:R:3:fragment_id:I:1 config_id=dissociation__stress_nitroethane__whole_environment__10A molecule_id=stress_nitroethane regime=whole_environment n_solute_atoms=10 pbc="F F F"
C       -1.08655935      -0.26912393       0.19921890        0
C        0.07989359       0.51994263      -0.35712221        0
N        1.35131897      -0.14039219       0.07755178        0
O        1.84023896       0.23136064       1.15159617        0
O        1.81524379      -1.01344334      -0.66633626        0
H       -1.08003052      -1.30191745      -0.16584906        0
H       -1.05995946      -0.30242604       1.29382519        0
H       -2.03250044       0.19100393      -0.10284164        0
H        0.09629761       1.54650252       0.02103456        0
H        0.07605685       0.53849323      -1.45107745        0
O       17.37733576      -0.72089793       8.94185970        1
H       17.14563392       0.15121742       8.62254650        1
H       18.29571096      -0.64544554       9.20094614        1
O       16.79701552      -1.93525214       5.06272521        2
H       17.00331081      -2.80683757       5.40038322        2
H       17.43845662      -1.78923919       4.36740847        2
O        9.57267488      -1.25727366       7.31547503        3
H       10.27467460      -1.82689151       7.63006005        3
H        9.25281486      -0.81417660       8.10134169        3
19
Properties=species:S:1:pos:R:3:fragment_id:I:1 config_id=dissociation__stress_nitroethane__whole_environment__15A molecule_id=stress_nitroethane regime=whole_environment n_solute_atoms=10 pbc="F F F"
C       -1.08655935      -0.26912393       0.19921890        0
C        0.07989359       0.51994263      -0.35712221        0
N        1.35131897      -0.14039219       0.07755178        0
O        1.84023896       0.23136064       1.15159617        0
O        1.81524379      -1.01344334      -0.66633626        0
H       -1.08003052      -1.30191745      -0.16584906        0
H       -1.05995946      -0.30242604       1.29382519        0
H       -2.03250044       0.19100393      -0.10284164        0
H        0.09629761       1.54650252       0.02103456        0
H        0.07605685       0.53849323      -1.45107745        0
O       21.89711782      -0.90840087      11.26760500        1
H       21.66541598      -0.03628552      10.94829180        1
H       22.81549302      -0.83294848      11.52669144        1
O       21.31679758      -2.12275508       7.38847051        2
H       21.52309287      -2.99434051       7.72612852        2
H       21.95823868      -1.97674213       6.69315377        2
O       14.09245694      -1.44477660       9.64122033        3
H       14.79445666      -2.01439445       9.95580535        3
H       13.77259692      -1.00167954      10.42708699        3
19
Properties=species:S:1:pos:R:3:fragment_id:I:1 config_id=dissociation__stress_nitroethane__whole_environment__20A molecule_id=stress_nitroethane regime=whole_environment n_solute_atoms=10 pbc="F F F"
C       -1.08655935      -0.26912393       0.19921890        0
C        0.07989359       0.51994263      -0.35712221        0
N        1.35131897      -0.14039219       0.07755178        0
O        1.84023896       0.23136064       1.15159617        0
O        1.81524379      -1.01344334      -0.66633626        0
H       -1.08003052      -1.30191745      -0.16584906        0
H       -1.05995946      -0.30242604       1.29382519        0
H       -2.03250044       0.19100393      -0.10284164        0
H        0.09629761       1.54650252       0.02103456        0
H        0.07605685       0.53849323      -1.45107745        0
O       26.37792345      -1.09428687      13.57329419        1
H       26.14622161      -0.22217152      13.25398099        1
H       27.29629865      -1.01883448      13.83238063        1
O       25.79760321      -2.30864108       9.69415970        2
H       26.00389850      -3.18022651      10.03181771        2
H       26.43904431      -2.16262813       8.99884296        2
O       18.57326257      -1.63066260      11.94690952        3
H       19.27526229      -2.20028045      12.26149454        3
H       18.25340255      -1.18756554      12.73277618        3
15
Properties=species:S:1:pos:R:3:fragment_id:I:1 config_id=dissociation__stress_pyridine_n_oxide__single_water__3A molecule_id=stress_pyridine_n_oxide regime=single_water n_solute_atoms=12 pbc="F F F"
O       -1.95647405      -1.75183733      -0.27781868        0
N       -1.01686880      -0.91051058      -0.14439874        0
C        0.28807607      -1.32997052       0.04865315        0
C        1.33127939      -0.41682823       0.19688918        0
C        1.05706802       0.94650537       0.15010891        0
C       -0.24889400       1.38600233      -0.04318919        0
C       -1.27152145       0.44938672      -0.18831018        0
H        0.39438266      -2.40352801       0.06945373        0
H        2.34729336      -0.77124109       0.34732618        0
H        1.86327121       1.66838550       0.26459681        0
H       -0.47449544       2.44815541      -0.08138485        0
H       -2.31311697       0.68548043      -0.34192632        0
O       -4.87766440       1.76840468      -1.47900136        1
H       -5.71350093       1.92780348      -1.91740889        1
H       -4.25014202       2.31407824      -1.95301387        1
15
Properties=species:S:1:pos:R:3:fragment_id:I:1 config_id=dissociation__stress_pyridine_n_oxide__single_water__4A molecule_id=stress_pyridine_n_oxide regime=single_water n_solute_atoms=12 pbc="F F F"
O       -1.95647405      -1.75183733      -0.27781868        0
N       -1.01686880      -0.91051058      -0.14439874        0
C        0.28807607      -1.32997052       0.04865315        0
C        1.33127939      -0.41682823       0.19688918        0
C        1.05706802       0.94650537       0.15010891        0
C       -0.24889400       1.38600233      -0.04318919        0
C       -1.27152145       0.44938672      -0.18831018        0
H        0.39438266      -2.40352801       0.06945373        0
H        2.34729336      -0.77124109       0.34732618        0
H        1.86327121       1.66838550       0.26459681        0
H       -0.47449544       2.44815541      -0.08138485        0
H       -2.31311697       0.68548043      -0.34192632        0
O       -5.84741447       2.11998905      -1.77304818        1
H       -6.68325100       2.27938785      -2.21145571        1
H       -5.21989209       2.66566261      -2.24706069        1
15
Properties=species:S:1:pos:R:3:fragment_id:I:1 config_id=dissociation__stress_pyridine_n_oxide__single_water__5A molecule_id=stress_pyridine_n_oxide regime=single_water n_solute_atoms=12 pbc="F F F"
O       -1.95647405      -1.75183733      -0.27781868        0
N       -1.01686880      -0.91051058      -0.14439874        0
C        0.28807607      -1.32997052       0.04865315        0
C        1.33127939      -0.41682823       0.19688918        0
C        1.05706802       0.94650537       0.15010891        0
C       -0.24889400       1.38600233      -0.04318919        0
C       -1.27152145       0.44938672      -0.18831018        0
H        0.39438266      -2.40352801       0.06945373        0
H        2.34729336      -0.77124109       0.34732618        0
H        1.86327121       1.66838550       0.26459681        0
H       -0.47449544       2.44815541      -0.08138485        0
H       -2.31311697       0.68548043      -0.34192632        0
O       -6.78914866       2.46141622      -2.05860004        1
H       -7.62498519       2.62081502      -2.49700757        1
H       -6.16162628       3.00708978      -2.53261255        1
15
Properties=species:S:1:pos:R:3:fragment_id:I:1 config_id=dissociation__stress_pyridine_n_oxide__single_water__6A molecule_id=stress_pyridine_n_oxide regime=single_water n_solute_atoms=12 pbc="F F F"
O       -1.95647405      -1.75183733      -0.27781868        0
N       -1.01686880      -0.91051058      -0.14439874        0
C        0.28807607      -1.32997052       0.04865315        0
C        1.33127939      -0.41682823       0.19688918        0
C        1.05706802       0.94650537       0.15010891        0
C       -0.24889400       1.38600233      -0.04318919        0
C       -1.27152145       0.44938672      -0.18831018        0
H        0.39438266      -2.40352801       0.06945373        0
H        2.34729336      -0.77124109       0.34732618        0
H        1.86327121       1.66838550       0.26459681        0
H       -0.47449544       2.44815541      -0.08138485        0
H       -2.31311697       0.68548043      -0.34192632        0
O       -7.71780680       2.79810265      -2.34018699        1
H       -8.55364333       2.95750145      -2.77859452        1
H       -7.09028442       3.34377621      -2.81419950        1
15
Properties=species:S:1:pos:R:3:fragment_id:I:1 config_id=dissociation__stress_pyridine_n_oxide__single_water__8A molecule_id=stress_pyridine_n_oxide regime=single_water n_solute_atoms=12 pbc="F F F"
O       -1.95647405      -1.75183733      -0.27781868        0
N       -1.01686880      -0.91051058      -0.14439874        0
C        0.28807607      -1.32997052       0.04865315        0
C        1.33127939      -0.41682823       0.19688918        0
C        1.05706802       0.94650537       0.15010891        0
C       -0.24889400       1.38600233      -0.04318919        0
C       -1.27152145       0.44938672      -0.18831018        0
H        0.39438266      -2.40352801       0.06945373        0
H        2.34729336      -0.77124109       0.34732618        0
H        1.86327121       1.66838550       0.26459681        0
H       -0.47449544       2.44815541      -0.08138485        0
H       -2.31311697       0.68548043      -0.34192632        0
O       -9.55624981       3.46463297      -2.89763816        1
H      -10.39208634       3.62403177      -3.33604569        1
H       -8.92872743       4.01030653      -3.37165067        1
15
Properties=species:S:1:pos:R:3:fragment_id:I:1 config_id=dissociation__stress_pyridine_n_oxide__single_water__10A molecule_id=stress_pyridine_n_oxide regime=single_water n_solute_atoms=12 pbc="F F F"
O       -1.95647405      -1.75183733      -0.27781868        0
N       -1.01686880      -0.91051058      -0.14439874        0
C        0.28807607      -1.32997052       0.04865315        0
C        1.33127939      -0.41682823       0.19688918        0
C        1.05706802       0.94650537       0.15010891        0
C       -0.24889400       1.38600233      -0.04318919        0
C       -1.27152145       0.44938672      -0.18831018        0
H        0.39438266      -2.40352801       0.06945373        0
H        2.34729336      -0.77124109       0.34732618        0
H        1.86327121       1.66838550       0.26459681        0
H       -0.47449544       2.44815541      -0.08138485        0
H       -2.31311697       0.68548043      -0.34192632        0
O      -11.38240948       4.12670995      -3.45136478        1
H      -12.21824601       4.28610875      -3.88977231        1
H      -10.75488710       4.67238351      -3.92537729        1
15
Properties=species:S:1:pos:R:3:fragment_id:I:1 config_id=dissociation__stress_pyridine_n_oxide__single_water__15A molecule_id=stress_pyridine_n_oxide regime=single_water n_solute_atoms=12 pbc="F F F"
O       -1.95647405      -1.75183733      -0.27781868        0
N       -1.01686880      -0.91051058      -0.14439874        0
C        0.28807607      -1.32997052       0.04865315        0
C        1.33127939      -0.41682823       0.19688918        0
C        1.05706802       0.94650537       0.15010891        0
C       -0.24889400       1.38600233      -0.04318919        0
C       -1.27152145       0.44938672      -0.18831018        0
H        0.39438266      -2.40352801       0.06945373        0
H        2.34729336      -0.77124109       0.34732618        0
H        1.86327121       1.66838550       0.26459681        0
H       -0.47449544       2.44815541      -0.08138485        0
H       -2.31311697       0.68548043      -0.34192632        0
O      -15.92670374       5.77425077      -4.82928193        1
H      -16.76254027       5.93364957      -5.26768946        1
H      -15.29918136       6.31992433      -5.30329444        1
15
Properties=species:S:1:pos:R:3:fragment_id:I:1 config_id=dissociation__stress_pyridine_n_oxide__single_water__20A molecule_id=stress_pyridine_n_oxide regime=single_water n_solute_atoms=12 pbc="F F F"
O       -1.95647405      -1.75183733      -0.27781868        0
N       -1.01686880      -0.91051058      -0.14439874        0
C        0.28807607      -1.32997052       0.04865315        0
C        1.33127939      -0.41682823       0.19688918        0
C        1.05706802       0.94650537       0.15010891        0
C       -0.24889400       1.38600233      -0.04318919        0
C       -1.27152145       0.44938672      -0.18831018        0
H        0.39438266      -2.40352801       0.06945373        0
H        2.34729336      -0.77124109       0.34732618        0
H        1.86327121       1.66838550       0.26459681        0
H       -0.47449544       2.44815541      -0.08138485        0
H       -2.31311697       0.68548043      -0.34192632        0
O      -20.45905991       7.41746342      -6.20357921        1
H      -21.29489644       7.57686222      -6.64198674        1
H      -19.83153753       7.96313698      -6.67759172        1
21
Properties=species:S:1:pos:R:3:fragment_id:I:1 config_id=dissociation__stress_pyridine_n_oxide__whole_environment__3A molecule_id=stress_pyridine_n_oxide regime=whole_environment n_solute_atoms=12 pbc="F F F"
O       -1.95647405      -1.75183733      -0.27781868        0
N       -1.01686880      -0.91051058      -0.14439874        0
C        0.28807607      -1.32997052       0.04865315        0
C        1.33127939      -0.41682823       0.19688918        0
C        1.05706802       0.94650537       0.15010891        0
C       -0.24889400       1.38600233      -0.04318919        0
C       -1.27152145       0.44938672      -0.18831018        0
H        0.39438266      -2.40352801       0.06945373        0
H        2.34729336      -0.77124109       0.34732618        0
H        1.86327121       1.66838550       0.26459681        0
H       -0.47449544       2.44815541      -0.08138485        0
H       -2.31311697       0.68548043      -0.34192632        0
O      -12.93822451       4.69077306      -3.92311773        1
H      -13.77406104       4.85017186      -4.36152526        1
H      -12.31070213       5.23644662      -4.39713024        1
O       -9.67261432       7.81501292      -1.78949297        2
H       -9.74803408       7.89037858      -2.74073622        2
H      -10.57461901       7.86265313      -1.47271262        2
O       -4.53301967       3.47538474      -0.23321033        3
H       -4.88824280       2.71357647      -0.69113667        3
H       -3.58522200       3.40241560      -0.34540176        3
21
Properties=species:S:1:pos:R:3:fragment_id:I:1 config_id=dissociation__stress_pyridine_n_oxide__whole_environment__4A molecule_id=stress_pyridine_n_oxide regime=whole_environment n_solute_atoms=12 pbc="F F F"
O       -1.95647405      -1.75183733      -0.27781868        0
N       -1.01686880      -0.91051058      -0.14439874        0
C        0.28807607      -1.32997052       0.04865315        0
C        1.33127939      -0.41682823       0.19688918        0
C        1.05706802       0.94650537       0.15010891        0
C       -0.24889400       1.38600233      -0.04318919        0
C       -1.27152145       0.44938672      -0.18831018        0
H        0.39438266      -2.40352801       0.06945373        0
H        2.34729336      -0.77124109       0.34732618        0
H        1.86327121       1.66838550       0.26459681        0
H       -0.47449544       2.44815541      -0.08138485        0
H       -2.31311697       0.68548043      -0.34192632        0
O      -14.11379566       5.11697818      -4.27957344        1
H      -14.94963219       5.27637698      -4.71798097        1
H      -13.48627328       5.66265174      -4.75358595        1
O      -10.84818547       8.24121804      -2.14594868        2
H      -10.92360523       8.31658370      -3.09719193        2
H      -11.75019016       8.28885825      -1.82916833        2
O       -5.70859082       3.90158986      -0.58966604        3
H       -6.06381395       3.13978159      -1.04759238        3
H       -4.76079315       3.82862072      -0.70185747        3
21
Properties=species:S:1:pos:R:3:fragment_id:I:1 config_id=dissociation__stress_pyridine_n_oxide__whole_environment__5A molecule_id=stress_pyridine_n_oxide regime=whole_environment n_solute_atoms=12 pbc="F F F"
O       -1.95647405      -1.75183733      -0.27781868        0
N       -1.01686880      -0.91051058      -0.14439874        0
C        0.28807607      -1.32997052       0.04865315        0
C        1.33127939      -0.41682823       0.19688918        0
C        1.05706802       0.94650537       0.15010891        0
C       -0.24889400       1.38600233      -0.04318919        0
C       -1.27152145       0.44938672      -0.18831018        0
H        0.39438266      -2.40352801       0.06945373        0
H        2.34729336      -0.77124109       0.34732618        0
H        1.86327121       1.66838550       0.26459681        0
H       -0.47449544       2.44815541      -0.08138485        0
H       -2.31311697       0.68548043      -0.34192632        0
O      -15.15262296       5.49360660      -4.59456579        1
H      -15.98845949       5.65300540      -5.03297332        1
H      -14.52510058       6.03928016      -5.06857830        1
O      -11.88701277       8.61784646      -2.46094103        2
H      -11.96243253       8.69321212      -3.41218428        2
H      -12.78901746       8.66548667      -2.14416068        2
O       -6.74741812       4.27821828      -0.90465839        3
H       -7.10264125       3.51641001      -1.36258473        3
H       -5.79962045       4.20524914      -1.01684982        3
21
Properties=species:S:1:pos:R:3:fragment_id:I:1 config_id=dissociation__stress_pyridine_n_oxide__whole_environment__6A molecule_id=stress_pyridine_n_oxide regime=whole_environment n_solute_atoms=12 pbc="F F F"
O       -1.95647405      -1.75183733      -0.27781868        0
N       -1.01686880      -0.91051058      -0.14439874        0
C        0.28807607      -1.32997052       0.04865315        0
C        1.33127939      -0.41682823       0.19688918        0
C        1.05706802       0.94650537       0.15010891        0
C       -0.24889400       1.38600233      -0.04318919        0
C       -1.27152145       0.44938672      -0.18831018        0
H        0.39438266      -2.40352801       0.06945373        0
H        2.34729336      -0.77124109       0.34732618        0
H        1.86327121       1.66838550       0.26459681        0
H       -0.47449544       2.44815541      -0.08138485        0
H       -2.31311697       0.68548043      -0.34192632        0
O      -16.13985477       5.85152900      -4.89391340        1
H      -16.97569130       6.01092780      -5.33232093        1
H      -15.51233239       6.39720256      -5.36792591        1
O      -12.87424458       8.97576886      -2.76028864        2
H      -12.94966434       9.05113452      -3.71153189        2
H      -13.77624927       9.02340907      -2.44350829        2
O       -7.73464993       4.63614068      -1.20400600        3
H       -8.08987306       3.87433241      -1.66193234        3
H       -6.78685226       4.56317154      -1.31619743        3
21
Properties=species:S:1:pos:R:3:fragment_id:I:1 config_id=dissociation__stress_pyridine_n_oxide__whole_environment__8A molecule_id=stress_pyridine_n_oxide regime=whole_environment n_solute_atoms=12 pbc="F F F"
O       -1.95647405      -1.75183733      -0.27781868        0
N       -1.01686880      -0.91051058      -0.14439874        0
C        0.28807607      -1.32997052       0.04865315        0
C        1.33127939      -0.41682823       0.19688918        0
C        1.05706802       0.94650537       0.15010891        0
C       -0.24889400       1.38600233      -0.04318919        0
C       -1.27152145       0.44938672      -0.18831018        0
H        0.39438266      -2.40352801       0.06945373        0
H        2.34729336      -0.77124109       0.34732618        0
H        1.86327121       1.66838550       0.26459681        0
H       -0.47449544       2.44815541      -0.08138485        0
H       -2.31311697       0.68548043      -0.34192632        0
O      -18.04682340       6.54290339      -5.47214285        1
H      -18.88265993       6.70230219      -5.91055038        1
H      -17.41930102       7.08857695      -5.94615536        1
O      -14.78121321       9.66714325      -3.33851809        2
H      -14.85663297       9.74250891      -4.28976134        2
H      -15.68321790       9.71478346      -3.02173774        2
O       -9.64161856       5.32751507      -1.78223545        3
H       -9.99684169       4.56570680      -2.24016179        3
H       -8.69382089       5.25454593      -1.89442688        3
21
Properties=species:S:1:pos:R:3:fragment_id:I:1 config_id=dissociation__stress_pyridine_n_oxide__whole_environment__10A molecule_id=stress_pyridine_n_oxide regime=whole_environment n_solute_atoms=12 pbc="F F F"
O       -1.95647405      -1.75183733      -0.27781868        0
N       -1.01686880      -0.91051058      -0.14439874        0
C        0.28807607      -1.32997052       0.04865315        0
C        1.33127939      -0.41682823       0.19688918        0
C        1.05706802       0.94650537       0.15010891        0
C       -0.24889400       1.38600233      -0.04318919        0
C       -1.27152145       0.44938672      -0.18831018        0
H        0.39438266      -2.40352801       0.06945373        0
H        2.34729336      -0.77124109       0.34732618        0
H        1.86327121       1.66838550       0.26459681        0
H       -0.47449544       2.44815541      -0.08138485        0
H       -2.31311697       0.68548043      -0.34192632        0
O      -19.91228905       7.21923081      -6.03778781        1
H      -20.74812558       7.37862961      -6.47619534        1
H      -19.28476667       7.76490437      -6.51180032        1
O      -16.64667886      10.34347067      -3.90416305        2
H      -16.72209862      10.41883633      -4.85540630        2
H      -17.54868355      10.39111088      -3.58738270        2
O      -11.50708421       6.00384249      -2.34788041        3
H      -11.86230734       5.24203422      -2.80580675        3
H      -10.55928654       5.93087335      -2.46007184        3
21
Properties=species:S:1:pos:R:3:fragment_id:I:1 config_id=dissociation__stress_pyridine_n_oxide__whole_environment__15A molecule_id=stress_pyridine_n_oxide regime=whole_environment n_solute_atoms=12 pbc="F F F"
O       -1.95647405      -1.75183733      -0.27781868        0
N       -1.01686880      -0.91051058      -0.14439874        0
C        0.28807607      -1.32997052       0.04865315        0
C        1.33127939      -0.41682823       0.19688918        0
C        1.05706802       0.94650537       0.15010891        0
C       -0.24889400       1.38600233      -0.04318919        0
C       -1.27152145       0.44938672      -0.18831018        0
H        0.39438266      -2.40352801       0.06945373        0
H        2.34729336      -0.77124109       0.34732618        0
H        1.86327121       1.66838550       0.26459681        0
H       -0.47449544       2.44815541      -0.08138485        0
H       -2.31311697       0.68548043      -0.34192632        0
O      -24.50752865       8.88524195      -7.43115255        1
H      -25.34336518       9.04464075      -7.86956008        1
H      -23.88000627       9.43091551      -7.90516506        1
O      -21.24191846      12.00948181      -5.29752779        2
H      -21.31733822      12.08484747      -6.24877104        2
H      -22.14392315      12.05712202      -4.98074744        2
O      -16.10232381       7.66985363      -3.74124515        3
H      -16.45754694       6.90804536      -4.19917149        3
H      -15.15452614       7.59688449      -3.85343658        3
21
Properties=species:S:1:pos:R:3:fragment_id:I:1 config_id=dissociation__stress_pyridine_n_oxide__whole_environment__20A molecule_id=stress_pyridine_n_oxide regime=whole_environment n_solute_atoms=12 pbc="F F F"
O       -1.95647405      -1.75183733      -0.27781868        0
N       -1.01686880      -0.91051058      -0.14439874        0
C        0.28807607      -1.32997052       0.04865315        0
C        1.33127939      -0.41682823       0.19688918        0
C        1.05706802       0.94650537       0.15010891        0
C       -0.24889400       1.38600233      -0.04318919        0
C       -1.27152145       0.44938672      -0.18831018        0
H        0.39438266      -2.40352801       0.06945373        0
H        2.34729336      -0.77124109       0.34732618        0
H        1.86327121       1.66838550       0.26459681        0
H       -0.47449544       2.44815541      -0.08138485        0
H       -2.31311697       0.68548043      -0.34192632        0
O      -29.06490971      10.53752742      -8.81303787        1
H      -29.90074624      10.69692622      -9.25144540        1
H      -28.43738733      11.08320098      -9.28705038        1
O      -25.79929952      13.66176728      -6.67941311        2
H      -25.87471928      13.73713294      -7.63065636        2
H      -26.70130421      13.70940749      -6.36263276        2
O      -20.65970487       9.32213910      -5.12313047        3
H      -21.01492800       8.56033083      -5.58105681        3
H      -19.71190720       9.24916996      -5.23532190        3
17
Properties=species:S:1:pos:R:3:fragment_id:I:1 config_id=dissociation__dev_amino_alcohol_halogen__single_water__3A molecule_id=dev_amino_alcohol_halogen regime=single_water n_solute_atoms=14 pbc="F F F"
N        1.49465528       0.74755177      -1.11139244        0
C        0.89430077      -0.07623447      -0.04591109        0
C       -0.63922291       0.02999456      -0.11451570        0
O       -1.01898582       1.41545057      -0.09155202        0
C       -1.36202945      -0.77965333       0.96957771        0
F       -1.13004734      -2.10527341       0.75492287        0
Cl      -0.85342699      -0.37868233       2.62840839        0
H        2.51123485       0.72243287      -1.00864730        0
H        1.30458421       0.31783336      -2.01863142        0
H        1.26765359       0.31806584       0.90413225        0
H        1.22266534      -1.11581358      -0.14473078        0
H       -0.96426961      -0.36112130      -1.08706641        0
H       -0.28540415       1.87653331      -0.55266166        0
H       -2.44170778      -0.61108387       0.91806760        0
O       -5.71196506       0.39757303       2.70784840        1
H       -5.14102582       0.15681565       1.97826213        1
H       -5.82879238       1.34346679       2.61914546        1
17
Properties=species:S:1:pos:R:3:fragment_id:I:1 config_id=dissociation__dev_amino_alcohol_halogen__single_water__4A molecule_id=dev_amino_alcohol_halogen regime=single_water n_solute_atoms=14 pbc="F F F"
N        1.49465528       0.74755177      -1.11139244        0
C        0.89430077      -0.07623447      -0.04591109        0
C       -0.63922291       0.02999456      -0.11451570        0
O       -1.01898582       1.41545057      -0.09155202        0
C       -1.36202945      -0.77965333       0.96957771        0
F       -1.13004734      -2.10527341       0.75492287        0
Cl      -0.85342699      -0.37868233       2.62840839        0
H        2.51123485       0.72243287      -1.00864730        0
H        1.30458421       0.31783336      -2.01863142        0
H        1.26765359       0.31806584       0.90413225        0
H        1.22266534      -1.11581358      -0.14473078        0
H       -0.96426961      -0.36112130      -1.08706641        0
H       -0.28540415       1.87653331      -0.55266166        0
H       -2.44170778      -0.61108387       0.91806760        0
O       -6.62847571       0.46136542       3.14233493        1
H       -6.05753647       0.22060804       2.41274866        1
H       -6.74530303       1.40725918       3.05363199        1
17
Properties=species:S:1:pos:R:3:fragment_id:I:1 config_id=dissociation__dev_amino_alcohol_halogen__single_water__5A molecule_id=dev_amino_alcohol_halogen regime=single_water n_solute_atoms=14 pbc="F F F"
N        1.49465528       0.74755177      -1.11139244        0
C        0.89430077      -0.07623447      -0.04591109        0
C       -0.63922291       0.02999456      -0.11451570        0
O       -1.01898582       1.41545057      -0.09155202        0
C       -1.36202945      -0.77965333       0.96957771        0
F       -1.13004734      -2.10527341       0.75492287        0
Cl      -0.85342699      -0.37868233       2.62840839        0
H        2.51123485       0.72243287      -1.00864730        0
H        1.30458421       0.31783336      -2.01863142        0
H        1.26765359       0.31806584       0.90413225        0
H        1.22266534      -1.11581358      -0.14473078        0
H       -0.96426961      -0.36112130      -1.08706641        0
H       -0.28540415       1.87653331      -0.55266166        0
H       -2.44170778      -0.61108387       0.91806760        0
O       -7.53902151       0.52474264       3.57399374        1
H       -6.96808227       0.28398526       2.84440747        1
H       -7.65584883       1.47063640       3.48529080        1
17
Properties=species:S:1:pos:R:3:fragment_id:I:1 config_id=dissociation__dev_amino_alcohol_halogen__single_water__6A molecule_id=dev_amino_alcohol_halogen regime=single_water n_solute_atoms=14 pbc="F F F"
N        1.49465528       0.74755177      -1.11139244        0
C        0.89430077      -0.07623447      -0.04591109        0
C       -0.63922291       0.02999456      -0.11451570        0
O       -1.01898582       1.41545057      -0.09155202        0
C       -1.36202945      -0.77965333       0.96957771        0
F       -1.13004734      -2.10527341       0.75492287        0
Cl      -0.85342699      -0.37868233       2.62840839        0
H        2.51123485       0.72243287      -1.00864730        0
H        1.30458421       0.31783336      -2.01863142        0
H        1.26765359       0.31806584       0.90413225        0
H        1.22266534      -1.11581358      -0.14473078        0
H       -0.96426961      -0.36112130      -1.08706641        0
H       -0.28540415       1.87653331      -0.55266166        0
H       -2.44170778      -0.61108387       0.91806760        0
O       -8.44663066       0.58791545       4.00426037        1
H       -7.87569142       0.34715807       3.27467410        1
H       -8.56345798       1.53380921       3.91555743        1
17
Properties=species:S:1:pos:R:3:fragment_id:I:1 config_id=dissociation__dev_amino_alcohol_halogen__single_water__8A molecule_id=dev_amino_alcohol_halogen regime=single_water n_solute_atoms=14 pbc="F F F"
N        1.49465528       0.74755177      -1.11139244        0
C        0.89430077      -0.07623447      -0.04591109        0
C       -0.63922291       0.02999456      -0.11451570        0
O       -1.01898582       1.41545057      -0.09155202        0
C       -1.36202945      -0.77965333       0.96957771        0
F       -1.13004734      -2.10527341       0.75492287        0
Cl      -0.85342699      -0.37868233       2.62840839        0
H        2.51123485       0.72243287      -1.00864730        0
H        1.30458421       0.31783336      -2.01863142        0
H        1.26765359       0.31806584       0.90413225        0
H        1.22266534      -1.11581358      -0.14473078        0
H       -0.96426961      -0.36112130      -1.08706641        0
H       -0.28540415       1.87653331      -0.55266166        0
H       -2.44170778      -0.61108387       0.91806760        0
O      -10.25748330       0.71395722       4.86272403        1
H       -9.68654406       0.47319984       4.13313776        1
H      -10.37431062       1.65985098       4.77402109        1
17
Properties=species:S:1:pos:R:3:fragment_id:I:1 config_id=dissociation__dev_amino_alcohol_halogen__single_water__10A molecule_id=dev_amino_alcohol_halogen regime=single_water n_solute_atoms=14 pbc="F F F"
N        1.49465528       0.74755177      -1.11139244        0
C        0.89430077      -0.07623447      -0.04591109        0
C       -0.63922291       0.02999456      -0.11451570        0
O       -1.01898582       1.41545057      -0.09155202        0
C       -1.36202945      -0.77965333       0.96957771        0
F       -1.13004734      -2.10527341       0.75492287        0
Cl      -0.85342699      -0.37868233       2.62840839        0
H        2.51123485       0.72243287      -1.00864730        0
H        1.30458421       0.31783336      -2.01863142        0
H        1.26765359       0.31806584       0.90413225        0
H        1.22266534      -1.11581358      -0.14473078        0
H       -0.96426961      -0.36112130      -1.08706641        0
H       -0.28540415       1.87653331      -0.55266166        0
H       -2.44170778      -0.61108387       0.91806760        0
O      -12.06544201       0.83979756       5.71981578        1
H      -11.49450277       0.59904018       4.99022951        1
H      -12.18226933       1.78569132       5.63111284        1
17
Properties=species:S:1:pos:R:3:fragment_id:I:1 config_id=dissociation__dev_amino_alcohol_halogen__single_water__15A molecule_id=dev_amino_alcohol_halogen regime=single_water n_solute_atoms=14 pbc="F F F"
N        1.49465528       0.74755177      -1.11139244        0
C        0.89430077      -0.07623447      -0.04591109        0
C       -0.63922291       0.02999456      -0.11451570        0
O       -1.01898582       1.41545057      -0.09155202        0
C       -1.36202945      -0.77965333       0.96957771        0
F       -1.13004734      -2.10527341       0.75492287        0
Cl      -0.85342699      -0.37868233       2.62840839        0
H        2.51123485       0.72243287      -1.00864730        0
H        1.30458421       0.31783336      -2.01863142        0
H        1.26765359       0.31806584       0.90413225        0
H        1.22266534      -1.11581358      -0.14473078        0
H       -0.96426961      -0.36112130      -1.08706641        0
H       -0.28540415       1.87653331      -0.55266166        0
H       -2.44170778      -0.61108387       0.91806760        0
O      -16.58029663       1.15404745       7.86015483        1
H      -16.00935739       0.91329007       7.13056856        1
H      -16.69712395       2.09994121       7.77145189        1
17
Properties=species:S:1:pos:R:3:fragment_id:I:1 config_id=dissociation__dev_amino_alcohol_halogen__single_water__20A molecule_id=dev_amino_alcohol_halogen regime=single_water n_solute_atoms=14 pbc="F F F"
N        1.49465528       0.74755177      -1.11139244        0
C        0.89430077      -0.07623447      -0.04591109        0
C       -0.63922291       0.02999456      -0.11451570        0
O       -1.01898582       1.41545057      -0.09155202        0
C       -1.36202945      -0.77965333       0.96957771        0
F       -1.13004734      -2.10527341       0.75492287        0
Cl      -0.85342699      -0.37868233       2.62840839        0
H        2.51123485       0.72243287      -1.00864730        0
H        1.30458421       0.31783336      -2.01863142        0
H        1.26765359       0.31806584       0.90413225        0
H        1.22266534      -1.11581358      -0.14473078        0
H       -0.96426961      -0.36112130      -1.08706641        0
H       -0.28540415       1.87653331      -0.55266166        0
H       -2.44170778      -0.61108387       0.91806760        0
O      -21.09227706       1.46809729       9.99913132        1
H      -20.52133782       1.22733991       9.26954505        1
H      -21.20910438       2.41399105       9.91042838        1
26
Properties=species:S:1:pos:R:3:fragment_id:I:1 config_id=dissociation__dev_amino_alcohol_halogen__whole_environment__3A molecule_id=dev_amino_alcohol_halogen regime=whole_environment n_solute_atoms=14 pbc="F F F"
N        1.49465528       0.74755177      -1.11139244        0
C        0.89430077      -0.07623447      -0.04591109        0
C       -0.63922291       0.02999456      -0.11451570        0
O       -1.01898582       1.41545057      -0.09155202        0
C       -1.36202945      -0.77965333       0.96957771        0
F       -1.13004734      -2.10527341       0.75492287        0
Cl      -0.85342699      -0.37868233       2.62840839        0
H        2.51123485       0.72243287      -1.00864730        0
H        1.30458421       0.31783336      -2.01863142        0
H        1.26765359       0.31806584       0.90413225        0
H        1.22266534      -1.11581358      -0.14473078        0
H       -0.96426961      -0.36112130      -1.08706641        0
H       -0.28540415       1.87653331      -0.55266166        0
H       -2.44170778      -0.61108387       0.91806760        0
O       -6.19887985       0.43146402       2.93867814        1
H       -5.62794061       0.19070664       2.20909187        1
H       -6.31570717       1.37735778       2.84997520        1
O       -3.26997638       4.27953108       0.39432426        2
H       -3.17001977       3.50551849      -0.15988241        2
H       -3.87238610       4.00383349       1.08521152        2
O       -6.40701758      -0.91792811       0.93577457        3
H       -7.34957596      -0.86329328       0.77819741        3
H       -6.05456694      -0.10841919       0.56603724        3
O       -3.81754804      -4.61735196       2.33499900        4
H       -3.57460964      -5.50968917       2.58187362        4
H       -3.15365790      -4.35567848       1.69702666        4
26
Properties=species:S:1:pos:R:3:fragment_id:I:1 config_id=dissociation__dev_amino_alcohol_halogen__whole_environment__4A molecule_id=dev_amino_alcohol_halogen regime=whole_environment n_solute_atoms=14 pbc="F F F"
N        1.49465528       0.74755177      -1.11139244        0
C        0.89430077      -0.07623447      -0.04591109        0
C       -0.63922291       0.02999456      -0.11451570        0
O       -1.01898582       1.41545057      -0.09155202        0
C       -1.36202945      -0.77965333       0.96957771        0
F       -1.13004734      -2.10527341       0.75492287        0
Cl      -0.85342699      -0.37868233       2.62840839        0
H        2.51123485       0.72243287      -1.00864730        0
H        1.30458421       0.31783336      -2.01863142        0
H        1.26765359       0.31806584       0.90413225        0
H        1.22266534      -1.11581358      -0.14473078        0
H       -0.96426961      -0.36112130      -1.08706641        0
H       -0.28540415       1.87653331      -0.55266166        0
H       -2.44170778      -0.61108387       0.91806760        0
O       -7.37141607       0.51307670       3.49453770        1
H       -6.80047683       0.27231932       2.76495143        1
H       -7.48824339       1.45897046       3.40583476        1
O       -4.44251260       4.36114376       0.95018382        2
H       -4.34255599       3.58713117       0.39597715        2
H       -5.04492232       4.08544617       1.64107108        2
O       -7.57955380      -0.83631543       1.49163413        3
H       -8.52211218      -0.78168060       1.33405697        3
H       -7.22710316      -0.02680651       1.12189680        3
O       -4.99008426      -4.53573928       2.89085856        4
H       -4.74714586      -5.42807649       3.13773318        4
H       -4.32619412      -4.27406580       2.25288622        4
26
Properties=species:S:1:pos:R:3:fragment_id:I:1 config_id=dissociation__dev_amino_alcohol_halogen__whole_environment__5A molecule_id=dev_amino_alcohol_halogen regime=whole_environment n_solute_atoms=14 pbc="F F F"
N        1.49465528       0.74755177      -1.11139244        0
C        0.89430077      -0.07623447      -0.04591109        0
C       -0.63922291       0.02999456      -0.11451570        0
O       -1.01898582       1.41545057      -0.09155202        0
C       -1.36202945      -0.77965333       0.96957771        0
F       -1.13004734      -2.10527341       0.75492287        0
Cl      -0.85342699      -0.37868233       2.62840839        0
H        2.51123485       0.72243287      -1.00864730        0
H        1.30458421       0.31783336      -2.01863142        0
H        1.26765359       0.31806584       0.90413225        0
H        1.22266534      -1.11581358      -0.14473078        0
H       -0.96426961      -0.36112130      -1.08706641        0
H       -0.28540415       1.87653331      -0.55266166        0
H       -2.44170778      -0.61108387       0.91806760        0
O       -8.44147408       0.58755654       4.00181581        1
H       -7.87053484       0.34679916       3.27222954        1
H       -8.55830140       1.53345030       3.91311287        1
O       -5.51257061       4.43562360       1.45746193        2
H       -5.41261400       3.66161101       0.90325526        2
H       -6.11498033       4.15992601       2.14834919        2
O       -8.64961181      -0.76183559       1.99891224        3
H       -9.59217019      -0.70720076       1.84133508        3
H       -8.29716117       0.04767333       1.62917491        3
O       -6.06014227      -4.46125944       3.39813667        4
H       -5.81720387      -5.35359665       3.64501129        4
H       -5.39625213      -4.19958596       2.76016433        4
26
Properties=species:S:1:pos:R:3:fragment_id:I:1 config_id=dissociation__dev_amino_alcohol_halogen__whole_environment__6A molecule_id=dev_amino_alcohol_halogen regime=whole_environment n_solute_atoms=14 pbc="F F F"
N        1.49465528       0.74755177      -1.11139244        0
C        0.89430077      -0.07623447      -0.04591109        0
C       -0.63922291       0.02999456      -0.11451570        0
O       -1.01898582       1.41545057      -0.09155202        0
C       -1.36202945      -0.77965333       0.96957771        0
F       -1.13004734      -2.10527341       0.75492287        0
Cl      -0.85342699      -0.37868233       2.62840839        0
H        2.51123485       0.72243287      -1.00864730        0
H        1.30458421       0.31783336      -2.01863142        0
H        1.26765359       0.31806584       0.90413225        0
H        1.22266534      -1.11581358      -0.14473078        0
H       -0.96426961      -0.36112130      -1.08706641        0
H       -0.28540415       1.87653331      -0.55266166        0
H       -2.44170778      -0.61108387       0.91806760        0
O       -9.70451886       0.67546893       4.60058239        1
H       -9.13357962       0.43471155       3.87099612        1
H       -9.82134618       1.62136269       4.51187945        1
O       -6.77561539       4.52353599       2.05622851        2
H       -6.67565878       3.74952340       1.50202184        2
H       -7.37802511       4.24783840       2.74711577        2
O       -9.91265659      -0.67392320       2.59767882        3
H      -10.85521497      -0.61928837       2.44010166        3
H       -9.56020595       0.13558572       2.22794149        3
O       -7.32318705      -4.37334705       3.99690325        4
H       -7.08024865      -5.26568426       4.24377787        4
H       -6.65929691      -4.11167357       3.35893091        4
26
Properties=species:S:1:pos:R:3:fragment_id:I:1 config_id=dissociation__dev_amino_alcohol_halogen__whole_environment__8A molecule_id=dev_amino_alcohol_halogen regime=whole_environment n_solute_atoms=14 pbc="F F F"
N        1.49465528       0.74755177      -1.11139244        0
C        0.89430077      -0.07623447      -0.04591109        0
C       -0.63922291       0.02999456      -0.11451570        0
O       -1.01898582       1.41545057      -0.09155202        0
C       -1.36202945      -0.77965333       0.96957771        0
F       -1.13004734      -2.10527341       0.75492287        0
Cl      -0.85342699      -0.37868233       2.62840839        0
H        2.51123485       0.72243287      -1.00864730        0
H        1.30458421       0.31783336      -2.01863142        0
H        1.26765359       0.31806584       0.90413225        0
H        1.22266534      -1.11581358      -0.14473078        0
H       -0.96426961      -0.36112130      -1.08706641        0
H       -0.28540415       1.87653331      -0.55266166        0
H       -2.44170778      -0.61108387       0.91806760        0
O      -11.87677201       0.82666546       5.63037375        1
H      -11.30583277       0.58590808       4.90078748        1
H      -11.99359933       1.77255922       5.54167081        1
O       -8.94786854       4.67473252       3.08601987        2
H       -8.84791193       3.90071993       2.53181320        2
H       -9.55027826       4.39903493       3.77690713        2
O      -12.08490974      -0.52272667       3.62747018        3
H      -13.02746812      -0.46809184       3.46989302        3
H      -11.73245910       0.28678225       3.25773285        3
O       -9.49544020      -4.22215052       5.02669461        4
H       -9.25250180      -5.11448773       5.27356923        4
H       -8.83155006      -3.96047704       4.38872227        4
26
Properties=species:S:1:pos:R:3:fragment_id:I:1 config_id=dissociation__dev_amino_alcohol_halogen__whole_environment__10A molecule_id=dev_amino_alcohol_halogen regime=whole_environment n_solute_atoms=14 pbc="F F F"
N        1.49465528       0.74755177      -1.11139244        0
C        0.89430077      -0.07623447      -0.04591109        0
C       -0.63922291       0.02999456      -0.11451570        0
O       -1.01898582       1.41545057      -0.09155202        0
C       -1.36202945      -0.77965333       0.96957771        0
F       -1.13004734      -2.10527341       0.75492287        0
Cl      -0.85342699      -0.37868233       2.62840839        0
H        2.51123485       0.72243287      -1.00864730        0
H        1.30458421       0.31783336      -2.01863142        0
H        1.26765359       0.31806584       0.90413225        0
H        1.22266534      -1.11581358      -0.14473078        0
H       -0.96426961      -0.36112130      -1.08706641        0
H       -0.28540415       1.87653331      -0.55266166        0
H       -2.44170778      -0.61108387       0.91806760        0
O      -13.93391943       0.96985021       6.60559739        1
H      -13.36298019       0.72909283       5.87601112        1
H      -14.05074675       1.91574397       6.51689445        1
O      -11.00501596       4.81791727       4.06124351        2
H      -10.90505935       4.04390468       3.50703684        2
H      -11.60742568       4.54221968       4.75213077        2
O      -14.14205716      -0.37954192       4.60269382        3
H      -15.08461554      -0.32490709       4.44511666        3
H      -13.78960652       0.42996700       4.23295649        3
O      -11.55258762      -4.07896577       6.00191825        4
H      -11.30964922      -4.97130298       6.24879287        4
H      -10.88869748      -3.81729229       5.36394591        4
26
Properties=species:S:1:pos:R:3:fragment_id:I:1 config_id=dissociation__dev_amino_alcohol_halogen__whole_environment__15A molecule_id=dev_amino_alcohol_halogen regime=whole_environment n_solute_atoms=14 pbc="F F F"
N        1.49465528       0.74755177      -1.11139244        0
C        0.89430077      -0.07623447      -0.04591109        0
C       -0.63922291       0.02999456      -0.11451570        0
O       -1.01898582       1.41545057      -0.09155202        0
C       -1.36202945      -0.77965333       0.96957771        0
F       -1.13004734      -2.10527341       0.75492287        0
Cl      -0.85342699      -0.37868233       2.62840839        0
H        2.51123485       0.72243287      -1.00864730        0
H        1.30458421       0.31783336      -2.01863142        0
H        1.26765359       0.31806584       0.90413225        0
H        1.22266534      -1.11581358      -0.14473078        0
H       -0.96426961      -0.36112130      -1.08706641        0
H       -0.28540415       1.87653331      -0.55266166        0
H       -2.44170778      -0.61108387       0.91806760        0
O      -18.75053615       1.30510382       8.88899159        1
H      -18.17959691       1.06434644       8.15940532        1
H      -18.86736347       2.25099758       8.80028865        1
O      -15.82163268       5.15317088       6.34463771        2
H      -15.72167607       4.37915829       5.79043104        2
H      -16.42404240       4.87747329       7.03552497        2
O      -18.95867388      -0.04428831       6.88608802        3
H      -19.90123226       0.01034652       6.72851086        3
H      -18.60622324       0.76522061       6.51635069        3
O      -16.36920434      -3.74371216       8.28531245        4
H      -16.12626594      -4.63604937       8.53218707        4
H      -15.70531420      -3.48203868       7.64734011        4
26
Properties=species:S:1:pos:R:3:fragment_id:I:1 config_id=dissociation__dev_amino_alcohol_halogen__whole_environment__20A molecule_id=dev_amino_alcohol_halogen regime=whole_environment n_solute_atoms=14 pbc="F F F"
N        1.49465528       0.74755177      -1.11139244        0
C        0.89430077      -0.07623447      -0.04591109        0
C       -0.63922291       0.02999456      -0.11451570        0
O       -1.01898582       1.41545057      -0.09155202        0
C       -1.36202945      -0.77965333       0.96957771        0
F       -1.13004734      -2.10527341       0.75492287        0
Cl      -0.85342699      -0.37868233       2.62840839        0
H        2.51123485       0.72243287      -1.00864730        0
H        1.30458421       0.31783336      -2.01863142        0
H        1.26765359       0.31806584       0.90413225        0
H        1.22266534      -1.11581358      -0.14473078        0
H       -0.96426961      -0.36112130      -1.08706641        0
H       -0.28540415       1.87653331      -0.55266166        0
H       -2.44170778      -0.61108387       0.91806760        0
O      -23.40510824       1.62907855      11.09556594        1
H      -22.83416900       1.38832117      10.36597967        1
H      -23.52193556       2.57497231      11.00686300        1
O      -20.47620477       5.47714561       8.55121206        2
H      -20.37624816       4.70313302       7.99700539        2
H      -21.07861449       5.20144802       9.24209932        2
O      -23.61324597       0.27968642       9.09266237        3
H      -24.55580435       0.33432125       8.93508521        3
H      -23.26079533       1.08919534       8.72292504        3
O      -21.02377643      -3.41973743      10.49188680        4
H      -20.78083803      -4.31207464      10.73876142        4
H      -20.35988629      -3.15806395       9.85391446        4
18
Properties=species:S:1:pos:R:3:fragment_id:I:1 config_id=dissociation__dev_aza_aryl_ether__single_water__3A molecule_id=dev_aza_aryl_ether regime=single_water n_solute_atoms=15 pbc="F F F"
C        2.59214423      -0.24633354       0.53336361        0
O        1.73734879       0.70048954      -0.09716949        0
C        0.40998013       0.31713553      -0.10267989        0
N        0.04946168      -0.86248429       0.46072709        0
C       -1.26582245      -1.17510827       0.41994837        0
C       -2.23785548      -0.36817124      -0.15538158        0
C       -1.84132466       0.83721461      -0.72670955        0
C       -0.49727156       1.18446038      -0.69963255        0
F       -0.10305136       2.34311749      -1.24677607        0
H        3.61334740       0.14437649       0.48729584        0
H        2.33294473      -0.37401326       1.59014204        0
H        2.57989658      -1.20630589       0.00556656        0
H       -1.52890315      -2.12510942       0.87793259        0
H       -3.27893738      -0.67244288      -0.15781449        0
H       -2.56195751       1.50317475      -1.18881246        0
O        6.95034161      -0.21720194       2.12274586        1
H        6.47214045       0.18217290       1.39607178        1
H        6.80505909       0.37548365       2.86020678        1
18
Properties=species:S:1:pos:R:3:fragment_id:I:1 config_id=dissociation__dev_aza_aryl_ether__single_water__4A molecule_id=dev_aza_aryl_ether regime=single_water n_solute_atoms=15 pbc="F F F"
C        2.59214423      -0.24633354       0.53336361        0
O        1.73734879       0.70048954      -0.09716949        0
C        0.40998013       0.31713553      -0.10267989        0
N        0.04946168      -0.86248429       0.46072709        0
C       -1.26582245      -1.17510827       0.41994837        0
C       -2.23785548      -0.36817124      -0.15538158        0
C       -1.84132466       0.83721461      -0.72670955        0
C       -0.49727156       1.18446038      -0.69963255        0
F       -0.10305136       2.34311749      -1.24677607        0
H        3.61334740       0.14437649       0.48729584        0
H        2.33294473      -0.37401326       1.59014204        0
H        2.57989658      -1.20630589       0.00556656        0
H       -1.52890315      -2.12510942       0.87793259        0
H       -3.27893738      -0.67244288      -0.15781449        0
H       -2.56195751       1.50317475      -1.18881246        0
O        7.90699708      -0.24709794       2.41492378        1
H        7.42879592       0.15227690       1.68824970        1
H        7.76171456       0.34558765       3.15238470        1
18
Properties=species:S:1:pos:R:3:fragment_id:I:1 config_id=dissociation__dev_aza_aryl_ether__single_water__5A molecule_id=dev_aza_aryl_ether regime=single_water n_solute_atoms=15 pbc="F F F"
C        2.59214423      -0.24633354       0.53336361        0
O        1.73734879       0.70048954      -0.09716949        0
C        0.40998013       0.31713553      -0.10267989        0
N        0.04946168      -0.86248429       0.46072709        0
C       -1.26582245      -1.17510827       0.41994837        0
C       -2.23785548      -0.36817124      -0.15538158        0
C       -1.84132466       0.83721461      -0.72670955        0
C       -0.49727156       1.18446038      -0.69963255        0
F       -0.10305136       2.34311749      -1.24677607        0
H        3.61334740       0.14437649       0.48729584        0
H        2.33294473      -0.37401326       1.59014204        0
H        2.57989658      -1.20630589       0.00556656        0
H       -1.52890315      -2.12510942       0.87793259        0
H       -3.27893738      -0.67244288      -0.15781449        0
H       -2.56195751       1.50317475      -1.18881246        0
O        8.86337496      -0.27698527       2.70701694        1
H        8.38517380       0.12238957       1.98034286        1
H        8.71809244       0.31570032       3.44447786        1
18
Properties=species:S:1:pos:R:3:fragment_id:I:1 config_id=dissociation__dev_aza_aryl_ether__single_water__6A molecule_id=dev_aza_aryl_ether regime=single_water n_solute_atoms=15 pbc="F F F"
C        2.59214423      -0.24633354       0.53336361        0
O        1.73734879       0.70048954      -0.09716949        0
C        0.40998013       0.31713553      -0.10267989        0
N        0.04946168      -0.86248429       0.46072709        0
C       -1.26582245      -1.17510827       0.41994837        0
C       -2.23785548      -0.36817124      -0.15538158        0
C       -1.84132466       0.83721461      -0.72670955        0
C       -0.49727156       1.18446038      -0.69963255        0
F       -0.10305136       2.34311749      -1.24677607        0
H        3.61334740       0.14437649       0.48729584        0
H        2.33294473      -0.37401326       1.59014204        0
H        2.57989658      -1.20630589       0.00556656        0
H       -1.52890315      -2.12510942       0.87793259        0
H       -3.27893738      -0.67244288      -0.15781449        0
H       -2.56195751       1.50317475      -1.18881246        0
O        9.81961414      -0.30686826       2.99906773        1
H        9.34141298       0.09250658       2.27239365        1
H        9.67433162       0.28581733       3.73652865        1
18
Properties=species:S:1:pos:R:3:fragment_id:I:1 config_id=dissociation__dev_aza_aryl_ether__single_water__8A molecule_id=dev_aza_aryl_ether regime=single_water n_solute_atoms=15 pbc="F F F"
C        2.59214423      -0.24633354       0.53336361        0
O        1.73734879       0.70048954      -0.09716949        0
C        0.40998013       0.31713553      -0.10267989        0
N        0.04946168      -0.86248429       0.46072709        0
C       -1.26582245      -1.17510827       0.41994837        0
C       -2.23785548      -0.36817124      -0.15538158        0
C       -1.84132466       0.83721461      -0.72670955        0
C       -0.49727156       1.18446038      -0.69963255        0
F       -0.10305136       2.34311749      -1.24677607        0
H        3.61334740       0.14437649       0.48729584        0
H        2.33294473      -0.37401326       1.59014204        0
H        2.57989658      -1.20630589       0.00556656        0
H       -1.52890315      -2.12510942       0.87793259        0
H       -3.27893738      -0.67244288      -0.15781449        0
H       -2.56195751       1.50317475      -1.18881246        0
O       11.73188455      -0.36662775       3.58310579        1
H       11.25368339       0.03274709       2.85643171        1
H       11.58660203       0.22605784       4.32056671        1
18
Properties=species:S:1:pos:R:3:fragment_id:I:1 config_id=dissociation__dev_aza_aryl_ether__single_water__10A molecule_id=dev_aza_aryl_ether regime=single_water n_solute_atoms=15 pbc="F F F"
C        2.59214423      -0.24633354       0.53336361        0
O        1.73734879       0.70048954      -0.09716949        0
C        0.40998013       0.31713553      -0.10267989        0
N        0.04946168      -0.86248429       0.46072709        0
C       -1.26582245      -1.17510827       0.41994837        0
C       -2.23785548      -0.36817124      -0.15538158        0
C       -1.84132466       0.83721461      -0.72670955        0
C       -0.49727156       1.18446038      -0.69963255        0
F       -0.10305136       2.34311749      -1.24677607        0
H        3.61334740       0.14437649       0.48729584        0
H        2.33294473      -0.37401326       1.59014204        0
H        2.57989658      -1.20630589       0.00556656        0
H       -1.52890315      -2.12510942       0.87793259        0
H       -3.27893738      -0.67244288      -0.15781449        0
H       -2.56195751       1.50317475      -1.18881246        0
O       13.64401636      -0.42638291       4.16710153        1
H       13.16581520      -0.02700807       3.44042745        1
H       13.49873384       0.16630268       4.90456245        1
18
Properties=species:S:1:pos:R:3:fragment_id:I:1 config_id=dissociation__dev_aza_aryl_ether__single_water__15A molecule_id=dev_aza_aryl_ether regime=single_water n_solute_atoms=15 pbc="F F F"
C        2.59214423      -0.24633354       0.53336361        0
O        1.73734879       0.70048954      -0.09716949        0
C        0.40998013       0.31713553      -0.10267989        0
N        0.04946168      -0.86248429       0.46072709        0
C       -1.26582245      -1.17510827       0.41994837        0
C       -2.23785548      -0.36817124      -0.15538158        0
C       -1.84132466       0.83721461      -0.72670955        0
C       -0.49727156       1.18446038      -0.69963255        0
F       -0.10305136       2.34311749      -1.24677607        0
H        3.61334740       0.14437649       0.48729584        0
H        2.33294473      -0.37401326       1.59014204        0
H        2.57989658      -1.20630589       0.00556656        0
H       -1.52890315      -2.12510942       0.87793259        0
H       -3.27893738      -0.67244288      -0.15781449        0
H       -2.56195751       1.50317475      -1.18881246        0
O       18.42410336      -0.57576321       5.62701680        1
H       17.94590220      -0.17638837       4.90034272        1
H       18.27882084       0.01692238       6.36447772        1
18
Properties=species:S:1:pos:R:3:fragment_id:I:1 config_id=dissociation__dev_aza_aryl_ether__single_water__20A molecule_id=dev_aza_aryl_ether regime=single_water n_solute_atoms=15 pbc="F F F"
C        2.59214423      -0.24633354       0.53336361        0
O        1.73734879       0.70048954      -0.09716949        0
C        0.40998013       0.31713553      -0.10267989        0
N        0.04946168      -0.86248429       0.46072709        0
C       -1.26582245      -1.17510827       0.41994837        0
C       -2.23785548      -0.36817124      -0.15538158        0
C       -1.84132466       0.83721461      -0.72670955        0
C       -0.49727156       1.18446038      -0.69963255        0
F       -0.10305136       2.34311749      -1.24677607        0
H        3.61334740       0.14437649       0.48729584        0
H        2.33294473      -0.37401326       1.59014204        0
H        2.57989658      -1.20630589       0.00556656        0
H       -1.52890315      -2.12510942       0.87793259        0
H       -3.27893738      -0.67244288      -0.15781449        0
H       -2.56195751       1.50317475      -1.18881246        0
O       23.20405180      -0.72513919       7.08688975        1
H       22.72585064      -0.32576435       6.36021567        1
H       23.05876928      -0.13245360       7.82435067        1
27
Properties=species:S:1:pos:R:3:fragment_id:I:1 config_id=dissociation__dev_aza_aryl_ether__whole_environment__3A molecule_id=dev_aza_aryl_ether regime=whole_environment n_solute_atoms=15 pbc="F F F"
C        2.59214423      -0.24633354       0.53336361        0
O        1.73734879       0.70048954      -0.09716949        0
C        0.40998013       0.31713553      -0.10267989        0
N        0.04946168      -0.86248429       0.46072709        0
C       -1.26582245      -1.17510827       0.41994837        0
C       -2.23785548      -0.36817124      -0.15538158        0
C       -1.84132466       0.83721461      -0.72670955        0
C       -0.49727156       1.18446038      -0.69963255        0
F       -0.10305136       2.34311749      -1.24677607        0
H        3.61334740       0.14437649       0.48729584        0
H        2.33294473      -0.37401326       1.59014204        0
H        2.57989658      -1.20630589       0.00556656        0
H       -1.52890315      -2.12510942       0.87793259        0
H       -3.27893738      -0.67244288      -0.15781449        0
H       -2.56195751       1.50317475      -1.18881246        0
O       17.77398024      -0.55544651       5.42845877        1
H       17.29577908      -0.15607167       4.70178469        1
H       17.62869772       0.03723908       6.16591969        1
O        6.58479776      -0.80036339       2.02985732        2
H        6.40555157      -0.90012048       1.09489681        2
H        5.71977893      -0.73424788       2.43433601        2
O        7.83900169      -3.93227027       4.43179784        3
H        7.82329165      -3.61028776       3.53051415        3
H        7.53987624      -4.83928059       4.36785966        3
O        8.52186608       2.98399014       3.09188276        4
H        8.89511044       3.67823005       2.54878844        4
H        7.71845852       3.36352013       3.44786748        4
27
Properties=species:S:1:pos:R:3:fragment_id:I:1 config_id=dissociation__dev_aza_aryl_ether__whole_environment__4A molecule_id=dev_aza_aryl_ether regime=whole_environment n_solute_atoms=15 pbc="F F F"
C        2.59214423      -0.24633354       0.53336361        0
O        1.73734879       0.70048954      -0.09716949        0
C        0.40998013       0.31713553      -0.10267989        0
N        0.04946168      -0.86248429       0.46072709        0
C       -1.26582245      -1.17510827       0.41994837        0
C       -2.23785548      -0.36817124      -0.15538158        0
C       -1.84132466       0.83721461      -0.72670955        0
C       -0.49727156       1.18446038      -0.69963255        0
F       -0.10305136       2.34311749      -1.24677607        0
H        3.61334740       0.14437649       0.48729584        0
H        2.33294473      -0.37401326       1.59014204        0
H        2.57989658      -1.20630589       0.00556656        0
H       -1.52890315      -2.12510942       0.87793259        0
H       -3.27893738      -0.67244288      -0.15781449        0
H       -2.56195751       1.50317475      -1.18881246        0
O       18.83217653      -0.58851572       5.75164889        1
H       18.35397537      -0.18914088       5.02497481        1
H       18.68689401       0.00416987       6.48910981        1
O        7.64299405      -0.83343260       2.35304744        2
H        7.46374786      -0.93318969       1.41808693        2
H        6.77797522      -0.76731709       2.75752613        2
O        8.89719798      -3.96533948       4.75498796        3
H        8.88148794      -3.64335697       3.85370427        3
H        8.59807253      -4.87234980       4.69104978        3
O        9.58006237       2.95092093       3.41507288        4
H        9.95330673       3.64516084       2.87197856        4
H        8.77665481       3.33045092       3.77105760        4
27
Properties=species:S:1:pos:R:3:fragment_id:I:1 config_id=dissociation__dev_aza_aryl_ether__whole_environment__5A molecule_id=dev_aza_aryl_ether regime=whole_environment n_solute_atoms=15 pbc="F F F"
C        2.59214423      -0.24633354       0.53336361        0
O        1.73734879       0.70048954      -0.09716949        0
C        0.40998013       0.31713553      -0.10267989        0
N        0.04946168      -0.86248429       0.46072709        0
C       -1.26582245      -1.17510827       0.41994837        0
C       -2.23785548      -0.36817124      -0.15538158        0
C       -1.84132466       0.83721461      -0.72670955        0
C       -0.49727156       1.18446038      -0.69963255        0
F       -0.10305136       2.34311749      -1.24677607        0
H        3.61334740       0.14437649       0.48729584        0
H        2.33294473      -0.37401326       1.59014204        0
H        2.57989658      -1.20630589       0.00556656        0
H       -1.52890315      -2.12510942       0.87793259        0
H       -3.27893738      -0.67244288      -0.15781449        0
H       -2.56195751       1.50317475      -1.18881246        0
O       19.84548616      -0.62018220       6.06112991        1
H       19.36728500      -0.22080736       5.33445583        1
H       19.70020364      -0.02749661       6.79859083        1
O        8.65630368      -0.86509908       2.66252846        2
H        8.47705749      -0.96485617       1.72756795        2
H        7.79128485      -0.79898357       3.06700715        2
O        9.91050761      -3.99700596       5.06446898        3
H        9.89479757      -3.67502345       4.16318529        3
H        9.61138216      -4.90401628       5.00053080        3
O       10.59337200       2.91925445       3.72455390        4
H       10.96661636       3.61349436       3.18145958        4
H        9.78996444       3.29878444       4.08053862        4
27
Properties=species:S:1:pos:R:3:fragment_id:I:1 config_id=dissociation__dev_aza_aryl_ether__whole_environment__6A molecule_id=dev_aza_aryl_ether regime=whole_environment n_solute_atoms=15 pbc="F F F"
C        2.59214423      -0.24633354       0.53336361        0
O        1.73734879       0.70048954      -0.09716949        0
C        0.40998013       0.31713553      -0.10267989        0
N        0.04946168      -0.86248429       0.46072709        0
C       -1.26582245      -1.17510827       0.41994837        0
C       -2.23785548      -0.36817124      -0.15538158        0
C       -1.84132466       0.83721461      -0.72670955        0
C       -0.49727156       1.18446038      -0.69963255        0
F       -0.10305136       2.34311749      -1.24677607        0
H        3.61334740       0.14437649       0.48729584        0
H        2.33294473      -0.37401326       1.59014204        0
H        2.57989658      -1.20630589       0.00556656        0
H       -1.52890315      -2.12510942       0.87793259        0
H       -3.27893738      -0.67244288      -0.15781449        0
H       -2.56195751       1.50317475      -1.18881246        0
O       20.83851397      -0.65121485       6.36441654        1
H       20.36031281      -0.25184001       5.63774246        1
H       20.69323145      -0.05852926       7.10187746        1
O        9.64933149      -0.89613173       2.96581509        2
H        9.47008530      -0.99588882       2.03085458        2
H        8.78431266      -0.83001622       3.37029378        2
O       10.90353542      -4.02803861       5.36775561        3
H       10.88782538      -3.70605610       4.46647192        3
H       10.60440997      -4.93504893       5.30381743        3
O       11.58639981       2.88822180       4.02784053        4
H       11.95964417       3.58246171       3.48474621        4
H       10.78299225       3.26775179       4.38382525        4
27
Properties=species:S:1:pos:R:3:fragment_id:I:1 config_id=dissociation__dev_aza_aryl_ether__whole_environment__8A molecule_id=dev_aza_aryl_ether regime=whole_environment n_solute_atoms=15 pbc="F F F"
C        2.59214423      -0.24633354       0.53336361        0
O        1.73734879       0.70048954      -0.09716949        0
C        0.40998013       0.31713553      -0.10267989        0
N        0.04946168      -0.86248429       0.46072709        0
C       -1.26582245      -1.17510827       0.41994837        0
C       -2.23785548      -0.36817124      -0.15538158        0
C       -1.84132466       0.83721461      -0.72670955        0
C       -0.49727156       1.18446038      -0.69963255        0
F       -0.10305136       2.34311749      -1.24677607        0
H        3.61334740       0.14437649       0.48729584        0
H        2.33294473      -0.37401326       1.59014204        0
H        2.57989658      -1.20630589       0.00556656        0
H       -1.52890315      -2.12510942       0.87793259        0
H       -3.27893738      -0.67244288      -0.15781449        0
H       -2.56195751       1.50317475      -1.18881246        0
O       22.79578726      -0.71238071       6.96219921        1
H       22.31758610      -0.31300587       6.23552513        1
H       22.65050474      -0.11969512       7.69966013        1
O       11.60660478      -0.95729759       3.56359776        2
H       11.42735859      -1.05705468       2.62863725        2
H       10.74158595      -0.89118208       3.96807645        2
O       12.86080871      -4.08920447       5.96553828        3
H       12.84509867      -3.76722196       5.06425459        3
H       12.56168326      -4.99621479       5.90160010        3
O       13.54367310       2.82705594       4.62562320        4
H       13.91691746       3.52129585       4.08252888        4
H       12.74026554       3.20658593       4.98160792        4
27
Properties=species:S:1:pos:R:3:fragment_id:I:1 config_id=dissociation__dev_aza_aryl_ether__whole_environment__10A molecule_id=dev_aza_aryl_ether regime=whole_environment n_solute_atoms=15 pbc="F F F"
C        2.59214423      -0.24633354       0.53336361        0
O        1.73734879       0.70048954      -0.09716949        0
C        0.40998013       0.31713553      -0.10267989        0
N        0.04946168      -0.86248429       0.46072709        0
C       -1.26582245      -1.17510827       0.41994837        0
C       -2.23785548      -0.36817124      -0.15538158        0
C       -1.84132466       0.83721461      -0.72670955        0
C       -0.49727156       1.18446038      -0.69963255        0
F       -0.10305136       2.34311749      -1.24677607        0
H        3.61334740       0.14437649       0.48729584        0
H        2.33294473      -0.37401326       1.59014204        0
H        2.57989658      -1.20630589       0.00556656        0
H       -1.52890315      -2.12510942       0.87793259        0
H       -3.27893738      -0.67244288      -0.15781449        0
H       -2.56195751       1.50317475      -1.18881246        0
O       24.73451892      -0.77296712       7.55431897        1
H       24.25631776      -0.37359228       6.82764489        1
H       24.58923640      -0.18028153       8.29177989        1
O       13.54533644      -1.01788400       4.15571752        2
H       13.36609025      -1.11764109       3.22075701        2
H       12.68031761      -0.95176849       4.56019621        2
O       14.79954037      -4.14979088       6.55765804        3
H       14.78383033      -3.82780837       5.65637435        3
H       14.50041492      -5.05680120       6.49371986        3
O       15.48240476       2.76646953       5.21774296        4
H       15.85564912       3.46070944       4.67464864        4
H       14.67899720       3.14599952       5.57372768        4
27
Properties=species:S:1:pos:R:3:fragment_id:I:1 config_id=dissociation__dev_aza_aryl_ether__whole_environment__15A molecule_id=dev_aza_aryl_ether regime=whole_environment n_solute_atoms=15 pbc="F F F"
C        2.59214423      -0.24633354       0.53336361        0
O        1.73734879       0.70048954      -0.09716949        0
C        0.40998013       0.31713553      -0.10267989        0
N        0.04946168      -0.86248429       0.46072709        0
C       -1.26582245      -1.17510827       0.41994837        0
C       -2.23785548      -0.36817124      -0.15538158        0
C       -1.84132466       0.83721461      -0.72670955        0
C       -0.49727156       1.18446038      -0.69963255        0
F       -0.10305136       2.34311749      -1.24677607        0
H        3.61334740       0.14437649       0.48729584        0
H        2.33294473      -0.37401326       1.59014204        0
H        2.57989658      -1.20630589       0.00556656        0
H       -1.52890315      -2.12510942       0.87793259        0
H       -3.27893738      -0.67244288      -0.15781449        0
H       -2.56195751       1.50317475      -1.18881246        0
O       29.54973332      -0.92344518       9.02496271        1
H       29.07153216      -0.52407034       8.29828863        1
H       29.40445080      -0.33075959       9.76242363        1
O       18.36055084      -1.16836206       5.62636126        2
H       18.18130465      -1.26811915       4.69140075        2
H       17.49553201      -1.10224655       6.03083995        2
O       19.61475477      -4.30026894       8.02830178        3
H       19.59904473      -3.97828643       7.12701809        3
H       19.31562932      -5.20727926       7.96436360        3
O       20.29761916       2.61599147       6.68838670        4
H       20.67086352       3.31023138       6.14529238        4
H       19.49421160       2.99552146       7.04437142        4
27
Properties=species:S:1:pos:R:3:fragment_id:I:1 config_id=dissociation__dev_aza_aryl_ether__whole_environment__20A molecule_id=dev_aza_aryl_ether regime=whole_environment n_solute_atoms=15 pbc="F F F"
C        2.59214423      -0.24633354       0.53336361        0
O        1.73734879       0.70048954      -0.09716949        0
C        0.40998013       0.31713553      -0.10267989        0
N        0.04946168      -0.86248429       0.46072709        0
C       -1.26582245      -1.17510827       0.41994837        0
C       -2.23785548      -0.36817124      -0.15538158        0
C       -1.84132466       0.83721461      -0.72670955        0
C       -0.49727156       1.18446038      -0.69963255        0
F       -0.10305136       2.34311749      -1.24677607        0
H        3.61334740       0.14437649       0.48729584        0
H        2.33294473      -0.37401326       1.59014204        0
H        2.57989658      -1.20630589       0.00556656        0
H       -1.52890315      -2.12510942       0.87793259        0
H       -3.27893738      -0.67244288      -0.15781449        0
H       -2.56195751       1.50317475      -1.18881246        0
O       34.34713925      -1.07336671      10.49016746        1
H       33.86893809      -0.67399187       9.76349338        1
H       34.20185673      -0.48068112      11.22762838        1
O       23.15795677      -1.31828359       7.09156601        2
H       22.97871058      -1.41804068       6.15660550        2
H       22.29293794      -1.25216808       7.49604470        2
O       24.41216070      -4.45019047       9.49350653        3
H       24.39645066      -4.12820796       8.59222284        3
H       24.11303525      -5.35720079       9.42956835        3
O       25.09502509       2.46606994       8.15359145        4
H       25.46826945       3.16030985       7.61049713        4
H       24.29161753       2.84559993       8.50957617        4
13
Properties=species:S:1:pos:R:3:fragment_id:I:1 config_id=dissociation__dev_cyano_ether__single_water__3A molecule_id=dev_cyano_ether regime=single_water n_solute_atoms=10 pbc="F F F"
C        1.39440452      -0.13917142      -0.05080464        0
O        0.25153848      -0.58043341      -0.77456353        0
C       -0.96855157      -0.41478807      -0.03785258        0
C       -1.42535856       0.98479894       0.00239506        0
N       -1.78662997       2.08728787       0.06006740        0
H        1.49470598      -0.69729912       0.88504338        0
H        2.28010244      -0.32790339      -0.66359850        0
H        1.33849076       0.93399617       0.15319623        0
H       -0.85295447      -0.82501094       0.97172148        0
H       -1.72574761      -1.02147663      -0.54560430        0
O       -4.68801636       0.56753223      -1.00730150        1
H       -4.29534207       0.02237172      -1.68909235        1
H       -5.62068544       0.58545437      -1.22186855        1
13
Properties=species:S:1:pos:R:3:fragment_id:I:1 config_id=dissociation__dev_cyano_ether__single_water__4A molecule_id=dev_cyano_ether regime=single_water n_solute_atoms=10 pbc="F F F"
C        1.39440452      -0.13917142      -0.05080464        0
O        0.25153848      -0.58043341      -0.77456353        0
C       -0.96855157      -0.41478807      -0.03785258        0
C       -1.42535856       0.98479894       0.00239506        0
N       -1.78662997       2.08728787       0.06006740        0
H        1.49470598      -0.69729912       0.88504338        0
H        2.28010244      -0.32790339      -0.66359850        0
H        1.33849076       0.93399617       0.15319623        0
H       -0.85295447      -0.82501094       0.97172148        0
H       -1.72574761      -1.02147663      -0.54560430        0
O       -5.69498735       0.68943634      -1.22366666        1
H       -5.30231306       0.14427583      -1.90545751        1
H       -6.62765643       0.70735848      -1.43823371        1
13
Properties=species:S:1:pos:R:3:fragment_id:I:1 config_id=dissociation__dev_cyano_ether__single_water__5A molecule_id=dev_cyano_ether regime=single_water n_solute_atoms=10 pbc="F F F"
C        1.39440452      -0.13917142      -0.05080464        0
O        0.25153848      -0.58043341      -0.77456353        0
C       -0.96855157      -0.41478807      -0.03785258        0
C       -1.42535856       0.98479894       0.00239506        0
N       -1.78662997       2.08728787       0.06006740        0
H        1.49470598      -0.69729912       0.88504338        0
H        2.28010244      -0.32790339      -0.66359850        0
H        1.33849076       0.93399617       0.15319623        0
H       -0.85295447      -0.82501094       0.97172148        0
H       -1.72574761      -1.02147663      -0.54560430        0
O       -6.68703481       0.80953381      -1.43682523        1
H       -6.29436052       0.26437330      -2.11861608        1
H       -7.61970389       0.82745595      -1.65139228        1
13
Properties=species:S:1:pos:R:3:fragment_id:I:1 config_id=dissociation__dev_cyano_ether__single_water__6A molecule_id=dev_cyano_ether regime=single_water n_solute_atoms=10 pbc="F F F"
C        1.39440452      -0.13917142      -0.05080464        0
O        0.25153848      -0.58043341      -0.77456353        0
C       -0.96855157      -0.41478807      -0.03785258        0
C       -1.42535856       0.98479894       0.00239506        0
N       -1.78662997       2.08728787       0.06006740        0
H        1.49470598      -0.69729912       0.88504338        0
H        2.28010244      -0.32790339      -0.66359850        0
H        1.33849076       0.93399617       0.15319623        0
H       -0.85295447      -0.82501094       0.97172148        0
H       -1.72574761      -1.02147663      -0.54560430        0
O       -7.67187896       0.92875925      -1.64843605        1
H       -7.27920467       0.38359874      -2.33022690        1
H       -8.60454804       0.94668139      -1.86300310        1
13
Properties=species:S:1:pos:R:3:fragment_id:I:1 config_id=dissociation__dev_cyano_ether__single_water__8A molecule_id=dev_cyano_ether regime=single_water n_solute_atoms=10 pbc="F F F"
C        1.39440452      -0.13917142      -0.05080464        0
O        0.25153848      -0.58043341      -0.77456353        0
C       -0.96855157      -0.41478807      -0.03785258        0
C       -1.42535856       0.98479894       0.00239506        0
N       -1.78662997       2.08728787       0.06006740        0
H        1.49470598      -0.69729912       0.88504338        0
H        2.28010244      -0.32790339      -0.66359850        0
H        1.33849076       0.93399617       0.15319623        0
H       -0.85295447      -0.82501094       0.97172148        0
H       -1.72574761      -1.02147663      -0.54560430        0
O       -9.63097800       1.16592818      -2.06938241        1
H       -9.23830371       0.62076767      -2.75117326        1
H      -10.56364708       1.18385032      -2.28394946        1
13
Properties=species:S:1:pos:R:3:fragment_id:I:1 config_id=dissociation__dev_cyano_ether__single_water__10A molecule_id=dev_cyano_ether regime=single_water n_solute_atoms=10 pbc="F F F"
C        1.39440452      -0.13917142      -0.05080464        0
O        0.25153848      -0.58043341      -0.77456353        0
C       -0.96855157      -0.41478807      -0.03785258        0
C       -1.42535856       0.98479894       0.00239506        0
N       -1.78662997       2.08728787       0.06006740        0
H        1.49470598      -0.69729912       0.88504338        0
H        2.28010244      -0.32790339      -0.66359850        0
H        1.33849076       0.93399617       0.15319623        0
H       -0.85295447      -0.82501094       0.97172148        0
H       -1.72574761      -1.02147663      -0.54560430        0
O      -11.58310676       1.40225329      -2.48883108        1
H      -11.19043247       0.85709278      -3.17062193        1
H      -12.51577584       1.42017543      -2.70339813        1
13
Properties=species:S:1:pos:R:3:fragment_id:I:1 config_id=dissociation__dev_cyano_ether__single_water__15A molecule_id=dev_cyano_ether regime=single_water n_solute_atoms=10 pbc="F F F"
C        1.39440452      -0.13917142      -0.05080464        0
O        0.25153848      -0.58043341      -0.77456353        0
C       -0.96855157      -0.41478807      -0.03785258        0
C       -1.42535856       0.98479894       0.00239506        0
N       -1.78662997       2.08728787       0.06006740        0
H        1.49470598      -0.69729912       0.88504338        0
H        2.28010244      -0.32790339      -0.66359850        0
H        1.33849076       0.93399617       0.15319623        0
H       -0.85295447      -0.82501094       0.97172148        0
H       -1.72574761      -1.02147663      -0.54560430        0
O      -16.53736257       2.00201652      -3.55333874        1
H      -16.14468828       1.45685601      -4.23512959        1
H      -17.47003165       2.01993866      -3.76790579        1
13
Properties=species:S:1:pos:R:3:fragment_id:I:1 config_id=dissociation__dev_cyano_ether__single_water__20A molecule_id=dev_cyano_ether regime=single_water n_solute_atoms=10 pbc="F F F"
C        1.39440452      -0.13917142      -0.05080464        0
O        0.25153848      -0.58043341      -0.77456353        0
C       -0.96855157      -0.41478807      -0.03785258        0
C       -1.42535856       0.98479894       0.00239506        0
N       -1.78662997       2.08728787       0.06006740        0
H        1.49470598      -0.69729912       0.88504338        0
H        2.28010244      -0.32790339      -0.66359850        0
H        1.33849076       0.93399617       0.15319623        0
H       -0.85295447      -0.82501094       0.97172148        0
H       -1.72574761      -1.02147663      -0.54560430        0
O      -21.45020460       2.59676619      -4.60894793        1
H      -21.05753031       2.05160568      -5.29073878        1
H      -22.38287368       2.61468833      -4.82351498        1
22
Properties=species:S:1:pos:R:3:fragment_id:I:1 config_id=dissociation__dev_cyano_ether__whole_environment__3A molecule_id=dev_cyano_ether regime=whole_environment n_solute_atoms=10 pbc="F F F"
C        1.39440452      -0.13917142      -0.05080464        0
O        0.25153848      -0.58043341      -0.77456353        0
C       -0.96855157      -0.41478807      -0.03785258        0
C       -1.42535856       0.98479894       0.00239506        0
N       -1.78662997       2.08728787       0.06006740        0
H        1.49470598      -0.69729912       0.88504338        0
H        2.28010244      -0.32790339      -0.66359850        0
H        1.33849076       0.93399617       0.15319623        0
H       -0.85295447      -0.82501094       0.97172148        0
H       -1.72574761      -1.02147663      -0.54560430        0
O      -12.85074068       1.55571332      -2.76120418        1
H      -12.45806639       1.01055281      -3.44299503        1
H      -13.78340976       1.57363546      -2.97577123        1
O       -4.14563616       0.64151903      -2.96069833        2
H       -4.19018903       1.59620410      -2.90756351        2
H       -3.25558860       0.42689357      -2.68144379        2
O      -12.82952676       0.06326998      -1.05358762        3
H      -12.35295374       0.87500595      -1.22735386        3
H      -13.41474299       0.27927513      -0.32757414        3
O      -12.08331787       5.64407559      -2.14603349        4
H      -12.03506934       4.69177039      -2.22981125        4
H      -12.29152785       5.95233671      -3.02799468        4
22
Properties=species:S:1:pos:R:3:fragment_id:I:1 config_id=dissociation__dev_cyano_ether__whole_environment__4A molecule_id=dev_cyano_ether regime=whole_environment n_solute_atoms=10 pbc="F F F"
C        1.39440452      -0.13917142      -0.05080464        0
O        0.25153848      -0.58043341      -0.77456353        0
C       -0.96855157      -0.41478807      -0.03785258        0
C       -1.42535856       0.98479894       0.00239506        0
N       -1.78662997       2.08728787       0.06006740        0
H        1.49470598      -0.69729912       0.88504338        0
H        2.28010244      -0.32790339      -0.66359850        0
H        1.33849076       0.93399617       0.15319623        0
H       -0.85295447      -0.82501094       0.97172148        0
H       -1.72574761      -1.02147663      -0.54560430        0
O      -14.09101399       1.70586106      -3.02769838        1
H      -13.69833970       1.16070055      -3.70948923        1
H      -15.02368307       1.72378320      -3.24226543        1
O       -5.38590947       0.79166677      -3.22719253        2
H       -5.43046234       1.74635184      -3.17405771        2
H       -4.49586191       0.57704131      -2.94793799        2
O      -14.06980007       0.21341772      -1.32008182        3
H      -13.59322705       1.02515369      -1.49384806        3
H      -14.65501630       0.42942287      -0.59406834        3
O      -13.32359118       5.79422333      -2.41252769        4
H      -13.27534265       4.84191813      -2.49630545        4
H      -13.53180116       6.10248445      -3.29448888        4
22
Properties=species:S:1:pos:R:3:fragment_id:I:1 config_id=dissociation__dev_cyano_ether__whole_environment__5A molecule_id=dev_cyano_ether regime=whole_environment n_solute_atoms=10 pbc="F F F"
C        1.39440452      -0.13917142      -0.05080464        0
O        0.25153848      -0.58043341      -0.77456353        0
C       -0.96855157      -0.41478807      -0.03785258        0
C       -1.42535856       0.98479894       0.00239506        0
N       -1.78662997       2.08728787       0.06006740        0
H        1.49470598      -0.69729912       0.88504338        0
H        2.28010244      -0.32790339      -0.66359850        0
H        1.33849076       0.93399617       0.15319623        0
H       -0.85295447      -0.82501094       0.97172148        0
H       -1.72574761      -1.02147663      -0.54560430        0
O      -15.19755268       1.83981886      -3.26545738        1
H      -14.80487839       1.29465835      -3.94724823        1
H      -16.13022176       1.85774100      -3.48002443        1
O       -6.49244816       0.92562457      -3.46495153        2
H       -6.53700103       1.88030964      -3.41181671        2
H       -5.60240060       0.71099911      -3.18569699        2
O      -15.17633876       0.34737552      -1.55784082        3
H      -14.69976574       1.15911149      -1.73160706        3
H      -15.76155499       0.56338067      -0.83182734        3
O      -14.43012987       5.92818113      -2.65028669        4
H      -14.38188134       4.97587593      -2.73406445        4
H      -14.63833985       6.23644225      -3.53224788        4
22
Properties=species:S:1:pos:R:3:fragment_id:I:1 config_id=dissociation__dev_cyano_ether__whole_environment__6A molecule_id=dev_cyano_ether regime=whole_environment n_solute_atoms=10 pbc="F F F"
C        1.39440452      -0.13917142      -0.05080464        0
O        0.25153848      -0.58043341      -0.77456353        0
C       -0.96855157      -0.41478807      -0.03785258        0
C       -1.42535856       0.98479894       0.00239506        0
N       -1.78662997       2.08728787       0.06006740        0
H        1.49470598      -0.69729912       0.88504338        0
H        2.28010244      -0.32790339      -0.66359850        0
H        1.33849076       0.93399617       0.15319623        0
H       -0.85295447      -0.82501094       0.97172148        0
H       -1.72574761      -1.02147663      -0.54560430        0
O      -16.25255802       1.96753802      -3.49214355        1
H      -15.85988373       1.42237751      -4.17393440        1
H      -17.18522710       1.98546016      -3.70671060        1
O       -7.54745350       1.05334373      -3.69163770        2
H       -7.59200637       2.00802880      -3.63850288        2
H       -6.65740594       0.83871827      -3.41238316        2
O      -16.23134410       0.47509468      -1.78452699        3
H      -15.75477108       1.28683065      -1.95829323        3
H      -16.81656033       0.69109983      -1.05851351        3
O      -15.48513521       6.05590029      -2.87697286        4
H      -15.43688668       5.10359509      -2.96075062        4
H      -15.69334519       6.36416141      -3.75893405        4
22
Properties=species:S:1:pos:R:3:fragment_id:I:1 config_id=dissociation__dev_cyano_ether__whole_environment__8A molecule_id=dev_cyano_ether regime=whole_environment n_solute_atoms=10 pbc="F F F"
C        1.39440452      -0.13917142      -0.05080464        0
O        0.25153848      -0.58043341      -0.77456353        0
C       -0.96855157      -0.41478807      -0.03785258        0
C       -1.42535856       0.98479894       0.00239506        0
N       -1.78662997       2.08728787       0.06006740        0
H        1.49470598      -0.69729912       0.88504338        0
H        2.28010244      -0.32790339      -0.66359850        0
H        1.33849076       0.93399617       0.15319623        0
H       -0.85295447      -0.82501094       0.97172148        0
H       -1.72574761      -1.02147663      -0.54560430        0
O      -18.29458160       2.21474582      -3.93090768        1
H      -17.90190731       1.66958531      -4.61269853        1
H      -19.22725068       2.23266796      -4.14547473        1
O       -9.58947708       1.30055153      -4.13040183        2
H       -9.63402995       2.25523660      -4.07726701        2
H       -8.69942952       1.08592607      -3.85114729        2
O      -18.27336768       0.72230248      -2.22329112        3
H      -17.79679466       1.53403845      -2.39705736        3
H      -18.85858391       0.93830763      -1.49727764        3
O      -17.52715879       6.30310809      -3.31573699        4
H      -17.47891026       5.35080289      -3.39951475        4
H      -17.73536877       6.61136921      -4.19769818        4
22
Properties=species:S:1:pos:R:3:fragment_id:I:1 config_id=dissociation__dev_cyano_ether__whole_environment__10A molecule_id=dev_cyano_ether regime=whole_environment n_solute_atoms=10 pbc="F F F"
C        1.39440452      -0.13917142      -0.05080464        0
O        0.25153848      -0.58043341      -0.77456353        0
C       -0.96855157      -0.41478807      -0.03785258        0
C       -1.42535856       0.98479894       0.00239506        0
N       -1.78662997       2.08728787       0.06006740        0
H        1.49470598      -0.69729912       0.88504338        0
H        2.28010244      -0.32790339      -0.66359850        0
H        1.33849076       0.93399617       0.15319623        0
H       -0.85295447      -0.82501094       0.97172148        0
H       -1.72574761      -1.02147663      -0.54560430        0
O      -20.35292432       2.46392921      -4.37317826        1
H      -19.96025003       1.91876870      -5.05496911        1
H      -21.28559340       2.48185135      -4.58774531        1
O      -11.64781980       1.54973492      -4.57267241        2
H      -11.69237267       2.50441999      -4.51953759        2
H      -10.75777224       1.33510946      -4.29341787        2
O      -20.33171040       0.97148587      -2.66556170        3
H      -19.85513738       1.78322184      -2.83932794        3
H      -20.91692663       1.18749102      -1.93954822        3
O      -19.58550151       6.55229148      -3.75800757        4
H      -19.53725298       5.59998628      -3.84178533        4
H      -19.79371149       6.86055260      -4.63996876        4
22
Properties=species:S:1:pos:R:3:fragment_id:I:1 config_id=dissociation__dev_cyano_ether__whole_environment__15A molecule_id=dev_cyano_ether regime=whole_environment n_solute_atoms=10 pbc="F F F"
C        1.39440452      -0.13917142      -0.05080464        0
O        0.25153848      -0.58043341      -0.77456353        0
C       -0.96855157      -0.41478807      -0.03785258        0
C       -1.42535856       0.98479894       0.00239506        0
N       -1.78662997       2.08728787       0.06006740        0
H        1.49470598      -0.69729912       0.88504338        0
H        2.28010244      -0.32790339      -0.66359850        0
H        1.33849076       0.93399617       0.15319623        0
H       -0.85295447      -0.82501094       0.97172148        0
H       -1.72574761      -1.02147663      -0.54560430        0
O      -25.36364677       3.07052830      -5.44981875        1
H      -24.97097248       2.52536779      -6.13160960        1
H      -26.29631585       3.08845044      -5.66438580        1
O      -16.65854225       2.15633401      -5.64931290        2
H      -16.70309512       3.11101908      -5.59617808        2
H      -15.76849469       1.94170855      -5.37005836        2
O      -25.34243285       1.57808496      -3.74220219        3
H      -24.86585983       2.38982093      -3.91596843        3
H      -25.92764908       1.79409011      -3.01618871        3
O      -24.59622396       7.15889057      -4.83464806        4
H      -24.54797543       6.20658537      -4.91842582        4
H      -24.80443394       7.46715169      -5.71660925        4
22
Properties=species:S:1:pos:R:3:fragment_id:I:1 config_id=dissociation__dev_cyano_ether__whole_environment__20A molecule_id=dev_cyano_ether regime=whole_environment n_solute_atoms=10 pbc="F F F"
C        1.39440452      -0.13917142      -0.05080464        0
O        0.25153848      -0.58043341      -0.77456353        0
C       -0.96855157      -0.41478807      -0.03785258        0
C       -1.42535856       0.98479894       0.00239506        0
N       -1.78662997       2.08728787       0.06006740        0
H        1.49470598      -0.69729912       0.88504338        0
H        2.28010244      -0.32790339      -0.66359850        0
H        1.33849076       0.93399617       0.15319623        0
H       -0.85295447      -0.82501094       0.97172148        0
H       -1.72574761      -1.02147663      -0.54560430        0
O      -30.29426450       3.66742990      -6.50924735        1
H      -29.90159021       3.12226939      -7.19103820        1
H      -31.22693358       3.68535204      -6.72381440        1
O      -21.58915998       2.75323561      -6.70874150        2
H      -21.63371285       3.70792068      -6.65560668        2
H      -20.69911242       2.53861015      -6.42948696        2
O      -30.27305058       2.17498656      -4.80163079        3
H      -29.79647756       2.98672253      -4.97539703        3
H      -30.85826681       2.39099171      -4.07561731        3
O      -29.52684169       7.75579217      -5.89407666        4
H      -29.47859316       6.80348697      -5.97785442        4
H      -29.73505167       8.06405329      -6.77603785        4
20
Properties=species:S:1:pos:R:3:fragment_id:I:1 config_id=dissociation__dev_cyclic_carbamate__single_water__3A molecule_id=dev_cyclic_carbamate regime=single_water n_solute_atoms=17 pbc="F F F"
O       -0.57471414       2.40023610       0.19585107        0
C       -0.04507130       1.30294096       0.02287873        0
N       -0.73175591       0.09916206       0.13913133        0
C       -2.15969347       0.09408374       0.39135598        0
C       -0.10344363      -1.15532992      -0.25924123        0
C        1.40594472      -1.13799148      -0.04539797        0
O        1.96788604      -0.04492637      -0.77051659        0
C        1.46553110       1.18739759      -0.26976822        0
H       -2.67738095      -0.16687586      -0.53629823        0
H       -2.38288731      -0.65268908       1.15858520        0
H       -2.51343206       1.07042029       0.73243729        0
H       -0.33216022      -1.29598800      -1.32184946        0
H       -0.55057164      -1.97529734       0.31223619        0
H        1.66404610      -1.04622209       1.01640490        0
H        1.85174090      -2.06253895      -0.42474706        0
H        1.99606398       1.42244096       0.66050978        0
H        1.71989778       1.96117740      -1.00157173        0
O       -6.09315591       0.52612201       0.81195564        1
H       -5.54377788       0.51512565       0.02818610        1
H       -6.07752170      -0.37702542       1.12867652        1
20
Properties=species:S:1:pos:R:3:fragment_id:I:1 config_id=dissociation__dev_cyclic_carbamate__single_water__4A molecule_id=dev_cyclic_carbamate regime=single_water n_solute_atoms=17 pbc="F F F"
O       -0.57471414       2.40023610       0.19585107        0
C       -0.04507130       1.30294096       0.02287873        0
N       -0.73175591       0.09916206       0.13913133        0
C       -2.15969347       0.09408374       0.39135598        0
C       -0.10344363      -1.15532992      -0.25924123        0
C        1.40594472      -1.13799148      -0.04539797        0
O        1.96788604      -0.04492637      -0.77051659        0
C        1.46553110       1.18739759      -0.26976822        0
H       -2.67738095      -0.16687586      -0.53629823        0
H       -2.38288731      -0.65268908       1.15858520        0
H       -2.51343206       1.07042029       0.73243729        0
H       -0.33216022      -1.29598800      -1.32184946        0
H       -0.55057164      -1.97529734       0.31223619        0
H        1.66404610      -1.04622209       1.01640490        0
H        1.85174090      -2.06253895      -0.42474706        0
H        1.99606398       1.42244096       0.66050978        0
H        1.71989778       1.96117740      -1.00157173        0
O       -7.08989717       0.61218701       0.94477839        1
H       -6.54051914       0.60119065       0.16100885        1
H       -7.07426296      -0.29096042       1.26149927        1
20
Properties=species:S:1:pos:R:3:fragment_id:I:1 config_id=dissociation__dev_cyclic_carbamate__single_water__5A molecule_id=dev_cyclic_carbamate regime=single_water n_solute_atoms=17 pbc="F F F"
O       -0.57471414       2.40023610       0.19585107        0
C       -0.04507130       1.30294096       0.02287873        0
N       -0.73175591       0.09916206       0.13913133        0
C       -2.15969347       0.09408374       0.39135598        0
C       -0.10344363      -1.15532992      -0.25924123        0
C        1.40594472      -1.13799148      -0.04539797        0
O        1.96788604      -0.04492637      -0.77051659        0
C        1.46553110       1.18739759      -0.26976822        0
H       -2.67738095      -0.16687586      -0.53629823        0
H       -2.38288731      -0.65268908       1.15858520        0
H       -2.51343206       1.07042029       0.73243729        0
H       -0.33216022      -1.29598800      -1.32184946        0
H       -0.55057164      -1.97529734       0.31223619        0
H        1.66404610      -1.04622209       1.01640490        0
H        1.85174090      -2.06253895      -0.42474706        0
H        1.99606398       1.42244096       0.66050978        0
H        1.71989778       1.96117740      -1.00157173        0
O       -8.08296114       0.69793450       1.07711111        1
H       -7.53358311       0.68693814       0.29334157        1
H       -8.06732693      -0.20521293       1.39383199        1
20
Properties=species:S:1:pos:R:3:fragment_id:I:1 config_id=dissociation__dev_cyclic_carbamate__single_water__6A molecule_id=dev_cyclic_carbamate regime=single_water n_solute_atoms=17 pbc="F F F"
O       -0.57471414       2.40023610       0.19585107        0
C       -0.04507130       1.30294096       0.02287873        0
N       -0.73175591       0.09916206       0.13913133        0
C       -2.15969347       0.09408374       0.39135598        0
C       -0.10344363      -1.15532992      -0.25924123        0
C        1.40594472      -1.13799148      -0.04539797        0
O        1.96788604      -0.04492637      -0.77051659        0
C        1.46553110       1.18739759      -0.26976822        0
H       -2.67738095      -0.16687586      -0.53629823        0
H       -2.38288731      -0.65268908       1.15858520        0
H       -2.51343206       1.07042029       0.73243729        0
H       -0.33216022      -1.29598800      -1.32184946        0
H       -0.55057164      -1.97529734       0.31223619        0
H        1.66404610      -1.04622209       1.01640490        0
H        1.85174090      -2.06253895      -0.42474706        0
H        1.99606398       1.42244096       0.66050978        0
H        1.71989778       1.96117740      -1.00157173        0
O       -9.07420252       0.78352462       1.20920096        1
H       -8.52482449       0.77252826       0.42543142        1
H       -9.05856831      -0.11962281       1.52592184        1
20
Properties=species:S:1:pos:R:3:fragment_id:I:1 config_id=dissociation__dev_cyclic_carbamate__single_water__8A molecule_id=dev_cyclic_carbamate regime=single_water n_solute_atoms=17 pbc="F F F"
O       -0.57471414       2.40023610       0.19585107        0
C       -0.04507130       1.30294096       0.02287873        0
N       -0.73175591       0.09916206       0.13913133        0
C       -2.15969347       0.09408374       0.39135598        0
C       -0.10344363      -1.15532992      -0.25924123        0
C        1.40594472      -1.13799148      -0.04539797        0
O        1.96788604      -0.04492637      -0.77051659        0
C        1.46553110       1.18739759      -0.26976822        0
H       -2.67738095      -0.16687586      -0.53629823        0
H       -2.38288731      -0.65268908       1.15858520        0
H       -2.51343206       1.07042029       0.73243729        0
H       -0.33216022      -1.29598800      -1.32184946        0
H       -0.55057164      -1.97529734       0.31223619        0
H        1.66404610      -1.04622209       1.01640490        0
H        1.85174090      -2.06253895      -0.42474706        0
H        1.99606398       1.42244096       0.66050978        0
H        1.71989778       1.96117740      -1.00157173        0
O      -11.06170229       0.95513804       1.47404920        1
H      -10.51232426       0.94414168       0.69027966        1
H      -11.04606808       0.05199061       1.79077008        1
20
Properties=species:S:1:pos:R:3:fragment_id:I:1 config_id=dissociation__dev_cyclic_carbamate__single_water__10A molecule_id=dev_cyclic_carbamate regime=single_water n_solute_atoms=17 pbc="F F F"
O       -0.57471414       2.40023610       0.19585107        0
C       -0.04507130       1.30294096       0.02287873        0
N       -0.73175591       0.09916206       0.13913133        0
C       -2.15969347       0.09408374       0.39135598        0
C       -0.10344363      -1.15532992      -0.25924123        0
C        1.40594472      -1.13799148      -0.04539797        0
O        1.96788604      -0.04492637      -0.77051659        0
C        1.46553110       1.18739759      -0.26976822        0
H       -2.67738095      -0.16687586      -0.53629823        0
H       -2.38288731      -0.65268908       1.15858520        0
H       -2.51343206       1.07042029       0.73243729        0
H       -0.33216022      -1.29598800      -1.32184946        0
H       -0.55057164      -1.97529734       0.31223619        0
H        1.66404610      -1.04622209       1.01640490        0
H        1.85174090      -2.06253895      -0.42474706        0
H        1.99606398       1.42244096       0.66050978        0
H        1.71989778       1.96117740      -1.00157173        0
O      -13.06019037       1.12770027       1.74036172        1
H      -12.51081234       1.11670391       0.95659218        1
H      -13.04455616       0.22455284       2.05708260        1
20
Properties=species:S:1:pos:R:3:fragment_id:I:1 config_id=dissociation__dev_cyclic_carbamate__single_water__15A molecule_id=dev_cyclic_carbamate regime=single_water n_solute_atoms=17 pbc="F F F"
O       -0.57471414       2.40023610       0.19585107        0
C       -0.04507130       1.30294096       0.02287873        0
N       -0.73175591       0.09916206       0.13913133        0
C       -2.15969347       0.09408374       0.39135598        0
C       -0.10344363      -1.15532992      -0.25924123        0
C        1.40594472      -1.13799148      -0.04539797        0
O        1.96788604      -0.04492637      -0.77051659        0
C        1.46553110       1.18739759      -0.26976822        0
H       -2.67738095      -0.16687586      -0.53629823        0
H       -2.38288731      -0.65268908       1.15858520        0
H       -2.51343206       1.07042029       0.73243729        0
H       -0.33216022      -1.29598800      -1.32184946        0
H       -0.55057164      -1.97529734       0.31223619        0
H        1.66404610      -1.04622209       1.01640490        0
H        1.85174090      -2.06253895      -0.42474706        0
H        1.99606398       1.42244096       0.66050978        0
H        1.71989778       1.96117740      -1.00157173        0
O      -18.02905718       1.55674397       2.40249798        1
H      -17.47967915       1.54574761       1.61872844        1
H      -18.01342297       0.65359654       2.71921886        1
20
Properties=species:S:1:pos:R:3:fragment_id:I:1 config_id=dissociation__dev_cyclic_carbamate__single_water__20A molecule_id=dev_cyclic_carbamate regime=single_water n_solute_atoms=17 pbc="F F F"
O       -0.57471414       2.40023610       0.19585107        0
C       -0.04507130       1.30294096       0.02287873        0
N       -0.73175591       0.09916206       0.13913133        0
C       -2.15969347       0.09408374       0.39135598        0
C       -0.10344363      -1.15532992      -0.25924123        0
C        1.40594472      -1.13799148      -0.04539797        0
O        1.96788604      -0.04492637      -0.77051659        0
C        1.46553110       1.18739759      -0.26976822        0
H       -2.67738095      -0.16687586      -0.53629823        0
H       -2.38288731      -0.65268908       1.15858520        0
H       -2.51343206       1.07042029       0.73243729        0
H       -0.33216022      -1.29598800      -1.32184946        0
H       -0.55057164      -1.97529734       0.31223619        0
H        1.66404610      -1.04622209       1.01640490        0
H        1.85174090      -2.06253895      -0.42474706        0
H        1.99606398       1.42244096       0.66050978        0
H        1.71989778       1.96117740      -1.00157173        0
O      -22.98248039       1.98445418       3.06257627        1
H      -22.43310236       1.97345782       2.27880673        1
H      -22.96684618       1.08130675       3.37929715        1
29
Properties=species:S:1:pos:R:3:fragment_id:I:1 config_id=dissociation__dev_cyclic_carbamate__whole_environment__3A molecule_id=dev_cyclic_carbamate regime=whole_environment n_solute_atoms=17 pbc="F F F"
O       -0.57471414       2.40023610       0.19585107        0
C       -0.04507130       1.30294096       0.02287873        0
N       -0.73175591       0.09916206       0.13913133        0
C       -2.15969347       0.09408374       0.39135598        0
C       -0.10344363      -1.15532992      -0.25924123        0
C        1.40594472      -1.13799148      -0.04539797        0
O        1.96788604      -0.04492637      -0.77051659        0
C        1.46553110       1.18739759      -0.26976822        0
H       -2.67738095      -0.16687586      -0.53629823        0
H       -2.38288731      -0.65268908       1.15858520        0
H       -2.51343206       1.07042029       0.73243729        0
H       -0.33216022      -1.29598800      -1.32184946        0
H       -0.55057164      -1.97529734       0.31223619        0
H        1.66404610      -1.04622209       1.01640490        0
H        1.85174090      -2.06253895      -0.42474706        0
H        1.99606398       1.42244096       0.66050978        0
H        1.71989778       1.96117740      -1.00157173        0
O      -16.04087813       1.38507189       2.13755921        1
H      -15.49150010       1.37407553       1.35378967        1
H      -16.02524392       0.48192446       2.45428009        1
O       -6.87270452       4.72261468       0.19483018        2
H       -6.97619849       4.00821753      -0.43378541        2
H       -7.76293558       5.04032604       0.34576059        2
O      -12.33688918       5.58974319       0.63729850        3
H      -12.63889459       5.52250126       1.54311476        3
H      -11.45612225       5.95843774       0.70472095        3
O       -6.39748081       0.98275916      -0.36550848        4
H       -6.71933980       1.47608178       0.38899230        4
H       -5.44988246       0.93942278      -0.23740244        4
29
Properties=species:S:1:pos:R:3:fragment_id:I:1 config_id=dissociation__dev_cyclic_carbamate__whole_environment__4A molecule_id=dev_cyclic_carbamate regime=whole_environment n_solute_atoms=17 pbc="F F F"
O       -0.57471414       2.40023610       0.19585107        0
C       -0.04507130       1.30294096       0.02287873        0
N       -0.73175591       0.09916206       0.13913133        0
C       -2.15969347       0.09408374       0.39135598        0
C       -0.10344363      -1.15532992      -0.25924123        0
C        1.40594472      -1.13799148      -0.04539797        0
O        1.96788604      -0.04492637      -0.77051659        0
C        1.46553110       1.18739759      -0.26976822        0
H       -2.67738095      -0.16687586      -0.53629823        0
H       -2.38288731      -0.65268908       1.15858520        0
H       -2.51343206       1.07042029       0.73243729        0
H       -0.33216022      -1.29598800      -1.32184946        0
H       -0.55057164      -1.97529734       0.31223619        0
H        1.66404610      -1.04622209       1.01640490        0
H        1.85174090      -2.06253895      -0.42474706        0
H        1.99606398       1.42244096       0.66050978        0
H        1.71989778       1.96117740      -1.00157173        0
O      -17.06104776       1.47315986       2.27350395        1
H      -16.51166973       1.46216350       1.48973441        1
H      -17.04541355       0.57001243       2.59022483        1
O       -7.89287415       4.81070265       0.33077492        2
H       -7.99636812       4.09630550      -0.29784067        2
H       -8.78310521       5.12841401       0.48170533        2
O      -13.35705881       5.67783116       0.77324324        3
H      -13.65906422       5.61058923       1.67905950        3
H      -12.47629188       6.04652571       0.84066569        3
O       -7.41765044       1.07084713      -0.22956374        4
H       -7.73950943       1.56416975       0.52493704        4
H       -6.47005209       1.02751075      -0.10145770        4
29
Properties=species:S:1:pos:R:3:fragment_id:I:1 config_id=dissociation__dev_cyclic_carbamate__whole_environment__5A molecule_id=dev_cyclic_carbamate regime=whole_environment n_solute_atoms=17 pbc="F F F"
O       -0.57471414       2.40023610       0.19585107        0
C       -0.04507130       1.30294096       0.02287873        0
N       -0.73175591       0.09916206       0.13913133        0
C       -2.15969347       0.09408374       0.39135598        0
C       -0.10344363      -1.15532992      -0.25924123        0
C        1.40594472      -1.13799148      -0.04539797        0
O        1.96788604      -0.04492637      -0.77051659        0
C        1.46553110       1.18739759      -0.26976822        0
H       -2.67738095      -0.16687586      -0.53629823        0
H       -2.38288731      -0.65268908       1.15858520        0
H       -2.51343206       1.07042029       0.73243729        0
H       -0.33216022      -1.29598800      -1.32184946        0
H       -0.55057164      -1.97529734       0.31223619        0
H        1.66404610      -1.04622209       1.01640490        0
H        1.85174090      -2.06253895      -0.42474706        0
H        1.99606398       1.42244096       0.66050978        0
H        1.71989778       1.96117740      -1.00157173        0
O      -18.06780065       1.56008933       2.40766082        1
H      -17.51842262       1.54909297       1.62389128        1
H      -18.05216644       0.65694190       2.72438170        1
O       -8.89962704       4.89763212       0.46493179        2
H       -9.00312101       4.18323497      -0.16368380        2
H       -9.78985810       5.21534348       0.61586220        2
O      -14.36381170       5.76476063       0.90740011        3
H      -14.66581711       5.69751870       1.81321637        3
H      -13.48304477       6.13345518       0.97482256        3
O       -8.42440333       1.15777660      -0.09540687        4
H       -8.74626232       1.65109922       0.65909391        4
H       -7.47680498       1.11444022       0.03269917        4
29
Properties=species:S:1:pos:R:3:fragment_id:I:1 config_id=dissociation__dev_cyclic_carbamate__whole_environment__6A molecule_id=dev_cyclic_carbamate regime=whole_environment n_solute_atoms=17 pbc="F F F"
O       -0.57471414       2.40023610       0.19585107        0
C       -0.04507130       1.30294096       0.02287873        0
N       -0.73175591       0.09916206       0.13913133        0
C       -2.15969347       0.09408374       0.39135598        0
C       -0.10344363      -1.15532992      -0.25924123        0
C        1.40594472      -1.13799148      -0.04539797        0
O        1.96788604      -0.04492637      -0.77051659        0
C        1.46553110       1.18739759      -0.26976822        0
H       -2.67738095      -0.16687586      -0.53629823        0
H       -2.38288731      -0.65268908       1.15858520        0
H       -2.51343206       1.07042029       0.73243729        0
H       -0.33216022      -1.29598800      -1.32184946        0
H       -0.55057164      -1.97529734       0.31223619        0
H        1.66404610      -1.04622209       1.01640490        0
H        1.85174090      -2.06253895      -0.42474706        0
H        1.99606398       1.42244096       0.66050978        0
H        1.71989778       1.96117740      -1.00157173        0
O      -19.07629453       1.64716914       2.54204968        1
H      -18.52691650       1.63617278       1.75828014        1
H      -19.06066032       0.74402171       2.85877056        1
O       -9.90812092       4.98471193       0.59932065        2
H      -10.01161489       4.27031478      -0.02929494        2
H      -10.79835198       5.30242329       0.75025106        2
O      -15.37230558       5.85184044       1.04178897        3
H      -15.67431099       5.78459851       1.94760523        3
H      -14.49153865       6.22053499       1.10921142        3
O       -9.43289721       1.24485641       0.03898199        4
H       -9.75475620       1.73817903       0.79348277        4
H       -8.48529886       1.20152003       0.16708803        4
29
Properties=species:S:1:pos:R:3:fragment_id:I:1 config_id=dissociation__dev_cyclic_carbamate__whole_environment__8A molecule_id=dev_cyclic_carbamate regime=whole_environment n_solute_atoms=17 pbc="F F F"
O       -0.57471414       2.40023610       0.19585107        0
C       -0.04507130       1.30294096       0.02287873        0
N       -0.73175591       0.09916206       0.13913133        0
C       -2.15969347       0.09408374       0.39135598        0
C       -0.10344363      -1.15532992      -0.25924123        0
C        1.40594472      -1.13799148      -0.04539797        0
O        1.96788604      -0.04492637      -0.77051659        0
C        1.46553110       1.18739759      -0.26976822        0
H       -2.67738095      -0.16687586      -0.53629823        0
H       -2.38288731      -0.65268908       1.15858520        0
H       -2.51343206       1.07042029       0.73243729        0
H       -0.33216022      -1.29598800      -1.32184946        0
H       -0.55057164      -1.97529734       0.31223619        0
H        1.66404610      -1.04622209       1.01640490        0
H        1.85174090      -2.06253895      -0.42474706        0
H        1.99606398       1.42244096       0.66050978        0
H        1.71989778       1.96117740      -1.00157173        0
O      -21.09309828       1.82131286       2.81080289        1
H      -20.54372025       1.81031650       2.02703335        1
H      -21.07746407       0.91816543       3.12752377        1
O      -11.92492467       5.15885565       0.86807386        2
H      -12.02841864       4.44445850       0.23945827        2
H      -12.81515573       5.47656701       1.01900427        2
O      -17.38910933       6.02598416       1.31054218        3
H      -17.69111474       5.95874223       2.21635844        3
H      -16.50834240       6.39467871       1.37796463        3
O      -11.44970096       1.41900013       0.30773520        4
H      -11.77155995       1.91232275       1.06223598        4
H      -10.50210261       1.37566375       0.43584124        4
29
Properties=species:S:1:pos:R:3:fragment_id:I:1 config_id=dissociation__dev_cyclic_carbamate__whole_environment__10A molecule_id=dev_cyclic_carbamate regime=whole_environment n_solute_atoms=17 pbc="F F F"
O       -0.57471414       2.40023610       0.19585107        0
C       -0.04507130       1.30294096       0.02287873        0
N       -0.73175591       0.09916206       0.13913133        0
C       -2.15969347       0.09408374       0.39135598        0
C       -0.10344363      -1.15532992      -0.25924123        0
C        1.40594472      -1.13799148      -0.04539797        0
O        1.96788604      -0.04492637      -0.77051659        0
C        1.46553110       1.18739759      -0.26976822        0
H       -2.67738095      -0.16687586      -0.53629823        0
H       -2.38288731      -0.65268908       1.15858520        0
H       -2.51343206       1.07042029       0.73243729        0
H       -0.33216022      -1.29598800      -1.32184946        0
H       -0.55057164      -1.97529734       0.31223619        0
H        1.66404610      -1.04622209       1.01640490        0
H        1.85174090      -2.06253895      -0.42474706        0
H        1.99606398       1.42244096       0.66050978        0
H        1.71989778       1.96117740      -1.00157173        0
O      -23.09295528       1.99399328       3.07729782        1
H      -22.54357725       1.98299692       2.29352828        1
H      -23.07732107       1.09084585       3.39401870        1
O      -13.92478167       5.33153607       1.13456879        2
H      -14.02827564       4.61713892       0.50595320        2
H      -14.81501273       5.64924743       1.28549920        2
O      -19.38896633       6.19866458       1.57703711        3
H      -19.69097174       6.13142265       2.48285337        3
H      -18.50819940       6.56735913       1.64445956        3
O      -13.44955796       1.59168055       0.57423013        4
H      -13.77141695       2.08500317       1.32873091        4
H      -12.50195961       1.54834417       0.70233617        4
29
Properties=species:S:1:pos:R:3:fragment_id:I:1 config_id=dissociation__dev_cyclic_carbamate__whole_environment__15A molecule_id=dev_cyclic_carbamate regime=whole_environment n_solute_atoms=17 pbc="F F F"
O       -0.57471414       2.40023610       0.19585107        0
C       -0.04507130       1.30294096       0.02287873        0
N       -0.73175591       0.09916206       0.13913133        0
C       -2.15969347       0.09408374       0.39135598        0
C       -0.10344363      -1.15532992      -0.25924123        0
C        1.40594472      -1.13799148      -0.04539797        0
O        1.96788604      -0.04492637      -0.77051659        0
C        1.46553110       1.18739759      -0.26976822        0
H       -2.67738095      -0.16687586      -0.53629823        0
H       -2.38288731      -0.65268908       1.15858520        0
H       -2.51343206       1.07042029       0.73243729        0
H       -0.33216022      -1.29598800      -1.32184946        0
H       -0.55057164      -1.97529734       0.31223619        0
H        1.66404610      -1.04622209       1.01640490        0
H        1.85174090      -2.06253895      -0.42474706        0
H        1.99606398       1.42244096       0.66050978        0
H        1.71989778       1.96117740      -1.00157173        0
O      -28.06361747       2.42319201       3.73967333        1
H      -27.51423944       2.41219565       2.95590379        1
H      -28.04798326       1.52004458       4.05639421        1
O      -18.89544386       5.76073480       1.79694430        2
H      -18.99893783       5.04633765       1.16832871        2
H      -19.78567492       6.07844616       1.94787471        2
O      -24.35962852       6.62786331       2.23941262        3
H      -24.66163393       6.56062138       3.14522888        3
H      -23.47886159       6.99655786       2.30683507        3
O      -18.42022015       2.02087928       1.23660564        4
H      -18.74207914       2.51420190       1.99110642        4
H      -17.47262180       1.97754290       1.36471168        4
29
Properties=species:S:1:pos:R:3:fragment_id:I:1 config_id=dissociation__dev_cyclic_carbamate__whole_environment__20A molecule_id=dev_cyclic_carbamate regime=whole_environment n_solute_atoms=17 pbc="F F F"
O       -0.57471414       2.40023610       0.19585107        0
C       -0.04507130       1.30294096       0.02287873        0
N       -0.73175591       0.09916206       0.13913133        0
C       -2.15969347       0.09408374       0.39135598        0
C       -0.10344363      -1.15532992      -0.25924123        0
C        1.40594472      -1.13799148      -0.04539797        0
O        1.96788604      -0.04492637      -0.77051659        0
C        1.46553110       1.18739759      -0.26976822        0
H       -2.67738095      -0.16687586      -0.53629823        0
H       -2.38288731      -0.65268908       1.15858520        0
H       -2.51343206       1.07042029       0.73243729        0
H       -0.33216022      -1.29598800      -1.32184946        0
H       -0.55057164      -1.97529734       0.31223619        0
H        1.66404610      -1.04622209       1.01640490        0
H        1.85174090      -2.06253895      -0.42474706        0
H        1.99606398       1.42244096       0.66050978        0
H        1.71989778       1.96117740      -1.00157173        0
O      -33.01792906       2.85097892       4.39987000        1
H      -32.46855103       2.83998256       3.61610046        1
H      -33.00229485       1.94783149       4.71659088        1
O      -23.84975545       6.18852171       2.45714097        2
H      -23.95324942       5.47412456       1.82852538        2
H      -24.73998651       6.50623307       2.60807138        2
O      -29.31394011       7.05565022       2.89960929        3
H      -29.61594552       6.98840829       3.80542555        3
H      -28.43317318       7.42434477       2.96703174        3
O      -23.37453174       2.44866619       1.89680231        4
H      -23.69639073       2.94198881       2.65130309        4
H      -22.42693339       2.40532981       2.02490835        4
16
Properties=species:S:1:pos:R:3:fragment_id:I:1 config_id=dissociation__dev_hydroxy_nitrile__single_water__3A molecule_id=dev_hydroxy_nitrile regime=single_water n_solute_atoms=13 pbc="F F F"
N        3.28035635      -0.66169080       0.35314983        0
C        2.15831027      -0.73385542       0.06447429        0
C        0.73243394      -0.86196935      -0.26978201        0
C       -0.04632014       0.37893890       0.17338856        0
O        0.19623331       1.43984200      -0.75090623        0
C       -1.54558892       0.10702480       0.19511285        0
H        0.62677969      -1.01361408      -1.35035003        0
H        0.33971610      -1.75328585       0.23333398        0
H        0.27967031       0.71139361       1.16624298        0
H       -0.22457950       2.24463236      -0.39931858        0
H       -1.90667054      -0.17739728      -0.79946917        0
H       -2.09475082       1.01022290       0.48249281        0
H       -1.79559003      -0.69024181       0.90163072        0
O        1.46668320       5.00876879      -2.15176147        1
H        1.37811848       4.62267937      -1.28037000        1
H        0.87935135       4.49251858      -2.70381116        1
16
Properties=species:S:1:pos:R:3:fragment_id:I:1 config_id=dissociation__dev_hydroxy_nitrile__single_water__4A molecule_id=dev_hydroxy_nitrile regime=single_water n_solute_atoms=13 pbc="F F F"
N        3.28035635      -0.66169080       0.35314983        0
C        2.15831027      -0.73385542       0.06447429        0
C        0.73243394      -0.86196935      -0.26978201        0
C       -0.04632014       0.37893890       0.17338856        0
O        0.19623331       1.43984200      -0.75090623        0
C       -1.54558892       0.10702480       0.19511285        0
H        0.62677969      -1.01361408      -1.35035003        0
H        0.33971610      -1.75328585       0.23333398        0
H        0.27967031       0.71139361       1.16624298        0
H       -0.22457950       2.24463236      -0.39931858        0
H       -1.90667054      -0.17739728      -0.79946917        0
H       -2.09475082       1.01022290       0.48249281        0
H       -1.79559003      -0.69024181       0.90163072        0
O        1.73572219       5.92754530      -2.54646683        1
H        1.64715747       5.54145588      -1.67507536        1
H        1.14839034       5.41129509      -3.09851652        1
16
Properties=species:S:1:pos:R:3:fragment_id:I:1 config_id=dissociation__dev_hydroxy_nitrile__single_water__5A molecule_id=dev_hydroxy_nitrile regime=single_water n_solute_atoms=13 pbc="F F F"
N        3.28035635      -0.66169080       0.35314983        0
C        2.15831027      -0.73385542       0.06447429        0
C        0.73243394      -0.86196935      -0.26978201        0
C       -0.04632014       0.37893890       0.17338856        0
O        0.19623331       1.43984200      -0.75090623        0
C       -1.54558892       0.10702480       0.19511285        0
H        0.62677969      -1.01361408      -1.35035003        0
H        0.33971610      -1.75328585       0.23333398        0
H        0.27967031       0.71139361       1.16624298        0
H       -0.22457950       2.24463236      -0.39931858        0
H       -1.90667054      -0.17739728      -0.79946917        0
H       -2.09475082       1.01022290       0.48249281        0
H       -1.79559003      -0.69024181       0.90163072        0
O        2.00094652       6.83329464      -2.93557573        1
H        1.91238180       6.44720522      -2.06418426        1
H        1.41361467       6.31704443      -3.48762542        1
16
Properties=species:S:1:pos:R:3:fragment_id:I:1 config_id=dissociation__dev_hydroxy_nitrile__single_water__6A molecule_id=dev_hydroxy_nitrile regime=single_water n_solute_atoms=13 pbc="F F F"
N        3.28035635      -0.66169080       0.35314983        0
C        2.15831027      -0.73385542       0.06447429        0
C        0.73243394      -0.86196935      -0.26978201        0
C       -0.04632014       0.37893890       0.17338856        0
O        0.19623331       1.43984200      -0.75090623        0
C       -1.54558892       0.10702480       0.19511285        0
H        0.62677969      -1.01361408      -1.35035003        0
H        0.33971610      -1.75328585       0.23333398        0
H        0.27967031       0.71139361       1.16624298        0
H       -0.22457950       2.24463236      -0.39931858        0
H       -1.90667054      -0.17739728      -0.79946917        0
H       -2.09475082       1.01022290       0.48249281        0
H       -1.79559003      -0.69024181       0.90163072        0
O        2.26432677       7.73274641      -3.32197920        1
H        2.17576205       7.34665699      -2.45058773        1
H        1.67699492       7.21649620      -3.87402889        1
16
Properties=species:S:1:pos:R:3:fragment_id:I:1 config_id=dissociation__dev_hydroxy_nitrile__single_water__8A molecule_id=dev_hydroxy_nitrile regime=single_water n_solute_atoms=13 pbc="F F F"
N        3.28035635      -0.66169080       0.35314983        0
C        2.15831027      -0.73385542       0.06447429        0
C        0.73243394      -0.86196935      -0.26978201        0
C       -0.04632014       0.37893890       0.17338856        0
O        0.19623331       1.43984200      -0.75090623        0
C       -1.54558892       0.10702480       0.19511285        0
H        0.62677969      -1.01361408      -1.35035003        0
H        0.33971610      -1.75328585       0.23333398        0
H        0.27967031       0.71139361       1.16624298        0
H       -0.22457950       2.24463236      -0.39931858        0
H       -1.90667054      -0.17739728      -0.79946917        0
H       -2.09475082       1.01022290       0.48249281        0
H       -1.79559003      -0.69024181       0.90163072        0
O        2.78837406       9.52238421      -4.09080560        1
H        2.69980934       9.13629479      -3.21941413        1
H        2.20104221       9.00613400      -4.64285529        1
16
Properties=species:S:1:pos:R:3:fragment_id:I:1 config_id=dissociation__dev_hydroxy_nitrile__single_water__10A molecule_id=dev_hydroxy_nitrile regime=single_water n_solute_atoms=13 pbc="F F F"
N        3.28035635      -0.66169080       0.35314983        0
C        2.15831027      -0.73385542       0.06447429        0
C        0.73243394      -0.86196935      -0.26978201        0
C       -0.04632014       0.37893890       0.17338856        0
O        0.19623331       1.43984200      -0.75090623        0
C       -1.54558892       0.10702480       0.19511285        0
H        0.62677969      -1.01361408      -1.35035003        0
H        0.33971610      -1.75328585       0.23333398        0
H        0.27967031       0.71139361       1.16624298        0
H       -0.22457950       2.24463236      -0.39931858        0
H       -1.90667054      -0.17739728      -0.79946917        0
H       -2.09475082       1.01022290       0.48249281        0
H       -1.79559003      -0.69024181       0.90163072        0
O        3.31063445      11.30591968      -4.85701044        1
H        3.22206973      10.91983026      -3.98561897        1
H        2.72330260      10.78966947      -5.40906013        1
16
Properties=species:S:1:pos:R:3:fragment_id:I:1 config_id=dissociation__dev_hydroxy_nitrile__single_water__15A molecule_id=dev_hydroxy_nitrile regime=single_water n_solute_atoms=13 pbc="F F F"
N        3.28035635      -0.66169080       0.35314983        0
C        2.15831027      -0.73385542       0.06447429        0
C        0.73243394      -0.86196935      -0.26978201        0
C       -0.04632014       0.37893890       0.17338856        0
O        0.19623331       1.43984200      -0.75090623        0
C       -1.54558892       0.10702480       0.19511285        0
H        0.62677969      -1.01361408      -1.35035003        0
H        0.33971610      -1.75328585       0.23333398        0
H        0.27967031       0.71139361       1.16624298        0
H       -0.22457950       2.24463236      -0.39931858        0
H       -1.90667054      -0.17739728      -0.79946917        0
H       -2.09475082       1.01022290       0.48249281        0
H       -1.79559003      -0.69024181       0.90163072        0
O        4.61318750      15.75417890      -6.76797762        1
H        4.52462278      15.36808948      -5.89658615        1
H        4.02585565      15.23792869      -7.32002731        1
16
Properties=species:S:1:pos:R:3:fragment_id:I:1 config_id=dissociation__dev_hydroxy_nitrile__single_water__20A molecule_id=dev_hydroxy_nitrile regime=single_water n_solute_atoms=13 pbc="F F F"
N        3.28035635      -0.66169080       0.35314983        0
C        2.15831027      -0.73385542       0.06447429        0
C        0.73243394      -0.86196935      -0.26978201        0
C       -0.04632014       0.37893890       0.17338856        0
O        0.19623331       1.43984200      -0.75090623        0
C       -1.54558892       0.10702480       0.19511285        0
H        0.62677969      -1.01361408      -1.35035003        0
H        0.33971610      -1.75328585       0.23333398        0
H        0.27967031       0.71139361       1.16624298        0
H       -0.22457950       2.24463236      -0.39931858        0
H       -1.90667054      -0.17739728      -0.79946917        0
H       -2.09475082       1.01022290       0.48249281        0
H       -1.79559003      -0.69024181       0.90163072        0
O        5.91397952      20.19642415      -8.67636121        1
H        5.82541480      19.81033473      -7.80496974        1
H        5.32664767      19.68017394      -9.22841090        1
25
Properties=species:S:1:pos:R:3:fragment_id:I:1 config_id=dissociation__dev_hydroxy_nitrile__whole_environment__3A molecule_id=dev_hydroxy_nitrile regime=whole_environment n_solute_atoms=13 pbc="F F F"
N        3.28035635      -0.66169080       0.35314983        0
C        2.15831027      -0.73385542       0.06447429        0
C        0.73243394      -0.86196935      -0.26978201        0
C       -0.04632014       0.37893890       0.17338856        0
O        0.19623331       1.43984200      -0.75090623        0
C       -1.54558892       0.10702480       0.19511285        0
H        0.62677969      -1.01361408      -1.35035003        0
H        0.33971610      -1.75328585       0.23333398        0
H        0.27967031       0.71139361       1.16624298        0
H       -0.22457950       2.24463236      -0.39931858        0
H       -1.90667054      -0.17739728      -0.79946917        0
H       -2.09475082       1.01022290       0.48249281        0
H       -1.79559003      -0.69024181       0.90163072        0
O        2.35878411       8.05532114      -3.46055695        1
H        2.27021939       7.66923172      -2.58916548        1
H        1.77145226       7.53907093      -4.01260664        1
O        2.99739638       0.10916993      -3.52977363        2
H        3.89293179      -0.05882755      -3.82307384        2
H        3.08263060       0.30013021      -2.59569594        2
O        7.00331369       3.29866837      -1.68326480        3
H        6.31778739       2.99937342      -2.28051523        3
H        6.52853632       3.65993347      -0.93472903        3
O       -0.01489823       8.03921363       0.60468963        4
H        0.35207280       7.61759392       1.38173590        4
H        0.19536491       7.44279110      -0.11385154        4
25
Properties=species:S:1:pos:R:3:fragment_id:I:1 config_id=dissociation__dev_hydroxy_nitrile__whole_environment__4A molecule_id=dev_hydroxy_nitrile regime=whole_environment n_solute_atoms=13 pbc="F F F"
N        3.28035635      -0.66169080       0.35314983        0
C        2.15831027      -0.73385542       0.06447429        0
C        0.73243394      -0.86196935      -0.26978201        0
C       -0.04632014       0.37893890       0.17338856        0
O        0.19623331       1.43984200      -0.75090623        0
C       -1.54558892       0.10702480       0.19511285        0
H        0.62677969      -1.01361408      -1.35035003        0
H        0.33971610      -1.75328585       0.23333398        0
H        0.27967031       0.71139361       1.16624298        0
H       -0.22457950       2.24463236      -0.39931858        0
H       -1.90667054      -0.17739728      -0.79946917        0
H       -2.09475082       1.01022290       0.48249281        0
H       -1.79559003      -0.69024181       0.90163072        0
O        2.70595802       9.24093085      -3.96989355        1
H        2.61739330       8.85484143      -3.09850208        1
H        2.11862617       8.72468064      -4.52194324        1
O        3.34457029       1.29477964      -4.03911023        2
H        4.24010570       1.12678216      -4.33241044        2
H        3.42980451       1.48573992      -3.10503254        2
O        7.35048760       4.48427808      -2.19260140        3
H        6.66496130       4.18498313      -2.78985183        3
H        6.87571023       4.84554318      -1.44406563        3
O        0.33227568       9.22482334       0.09535303        4
H        0.69924671       8.80320363       0.87239930        4
H        0.54253882       8.62840081      -0.62318814        4
25
Properties=species:S:1:pos:R:3:fragment_id:I:1 config_id=dissociation__dev_hydroxy_nitrile__whole_environment__5A molecule_id=dev_hydroxy_nitrile regime=whole_environment n_solute_atoms=13 pbc="F F F"
N        3.28035635      -0.66169080       0.35314983        0
C        2.15831027      -0.73385542       0.06447429        0
C        0.73243394      -0.86196935      -0.26978201        0
C       -0.04632014       0.37893890       0.17338856        0
O        0.19623331       1.43984200      -0.75090623        0
C       -1.54558892       0.10702480       0.19511285        0
H        0.62677969      -1.01361408      -1.35035003        0
H        0.33971610      -1.75328585       0.23333398        0
H        0.27967031       0.71139361       1.16624298        0
H       -0.22457950       2.24463236      -0.39931858        0
H       -1.90667054      -0.17739728      -0.79946917        0
H       -2.09475082       1.01022290       0.48249281        0
H       -1.79559003      -0.69024181       0.90163072        0
O        3.15003118      10.75745452      -4.62139042        1
H        3.06146646      10.37136510      -3.74999895        1
H        2.56269933      10.24120431      -5.17344011        1
O        3.78864345       2.81130331      -4.69060710        2
H        4.68417886       2.64330583      -4.98390731        2
H        3.87387767       3.00226359      -3.75652941        2
O        7.79456076       6.00080175      -2.84409827        3
H        7.10903446       5.70150680      -3.44134870        3
H        7.31978339       6.36206685      -2.09556250        3
O        0.77634884      10.74134701      -0.55614384        4
H        1.14331987      10.31972730       0.22090243        4
H        0.98661198      10.14492448      -1.27468501        4
25
Properties=species:S:1:pos:R:3:fragment_id:I:1 config_id=dissociation__dev_hydroxy_nitrile__whole_environment__6A molecule_id=dev_hydroxy_nitrile regime=whole_environment n_solute_atoms=13 pbc="F F F"
N        3.28035635      -0.66169080       0.35314983        0
C        2.15831027      -0.73385542       0.06447429        0
C        0.73243394      -0.86196935      -0.26978201        0
C       -0.04632014       0.37893890       0.17338856        0
O        0.19623331       1.43984200      -0.75090623        0
C       -1.54558892       0.10702480       0.19511285        0
H        0.62677969      -1.01361408      -1.35035003        0
H        0.33971610      -1.75328585       0.23333398        0
H        0.27967031       0.71139361       1.16624298        0
H       -0.22457950       2.24463236      -0.39931858        0
H       -1.90667054      -0.17739728      -0.79946917        0
H       -2.09475082       1.01022290       0.48249281        0
H       -1.79559003      -0.69024181       0.90163072        0
O        3.49435311      11.93332463      -5.12654290        1
H        3.40578839      11.54723521      -4.25515143        1
H        2.90702126      11.41707442      -5.67859259        1
O        4.13296538       3.98717342      -5.19575958        2
H        5.02850079       3.81917594      -5.48905979        2
H        4.21819960       4.17813370      -4.26168189        2
O        8.13888269       7.17667186      -3.34925075        3
H        7.45335639       6.87737691      -3.94650118        3
H        7.66410532       7.53793696      -2.60071498        3
O        1.12067077      11.91721712      -1.06129632        4
H        1.48764180      11.49559741      -0.28425005        4
H        1.33093391      11.32079459      -1.77983749        4
25
Properties=species:S:1:pos:R:3:fragment_id:I:1 config_id=dissociation__dev_hydroxy_nitrile__whole_environment__8A molecule_id=dev_hydroxy_nitrile regime=whole_environment n_solute_atoms=13 pbc="F F F"
N        3.28035635      -0.66169080       0.35314983        0
C        2.15831027      -0.73385542       0.06447429        0
C        0.73243394      -0.86196935      -0.26978201        0
C       -0.04632014       0.37893890       0.17338856        0
O        0.19623331       1.43984200      -0.75090623        0
C       -1.54558892       0.10702480       0.19511285        0
H        0.62677969      -1.01361408      -1.35035003        0
H        0.33971610      -1.75328585       0.23333398        0
H        0.27967031       0.71139361       1.16624298        0
H       -0.22457950       2.24463236      -0.39931858        0
H       -1.90667054      -0.17739728      -0.79946917        0
H       -2.09475082       1.01022290       0.48249281        0
H       -1.79559003      -0.69024181       0.90163072        0
O        4.10232357      14.00956266      -6.01849244        1
H        4.01375885      13.62347324      -5.14710097        1
H        3.51499172      13.49331245      -6.57054213        1
O        4.74093584       6.06341145      -6.08770912        2
H        5.63647125       5.89541397      -6.38100933        2
H        4.82617006       6.25437173      -5.15363143        2
O        8.74685315       9.25290989      -4.24120029        3
H        8.06132685       8.95361494      -4.83845072        3
H        8.27207578       9.61417499      -3.49266452        3
O        1.72864123      13.99345515      -1.95324586        4
H        2.09561226      13.57183544      -1.17619959        4
H        1.93890437      13.39703262      -2.67178703        4
25
Properties=species:S:1:pos:R:3:fragment_id:I:1 config_id=dissociation__dev_hydroxy_nitrile__whole_environment__10A molecule_id=dev_hydroxy_nitrile regime=whole_environment n_solute_atoms=13 pbc="F F F"
N        3.28035635      -0.66169080       0.35314983        0
C        2.15831027      -0.73385542       0.06447429        0
C        0.73243394      -0.86196935      -0.26978201        0
C       -0.04632014       0.37893890       0.17338856        0
O        0.19623331       1.43984200      -0.75090623        0
C       -1.54558892       0.10702480       0.19511285        0
H        0.62677969      -1.01361408      -1.35035003        0
H        0.33971610      -1.75328585       0.23333398        0
H        0.27967031       0.71139361       1.16624298        0
H       -0.22457950       2.24463236      -0.39931858        0
H       -1.90667054      -0.17739728      -0.79946917        0
H       -2.09475082       1.01022290       0.48249281        0
H       -1.79559003      -0.69024181       0.90163072        0
O        4.69671282      16.03942048      -6.89051708        1
H        4.60814810      15.65333106      -6.01912561        1
H        4.10938097      15.52317027      -7.44256677        1
O        5.33532509       8.09326927      -6.95973376        2
H        6.23086050       7.92527179      -7.25303397        2
H        5.42055931       8.28422955      -6.02565607        2
O        9.34124240      11.28276771      -5.11322493        3
H        8.65571610      10.98347276      -5.71047536        3
H        8.86646503      11.64403281      -4.36468916        3
O        2.32303048      16.02331297      -2.82527050        4
H        2.69000151      15.60169326      -2.04822423        4
H        2.53329362      15.42689044      -3.54381167        4
25
Properties=species:S:1:pos:R:3:fragment_id:I:1 config_id=dissociation__dev_hydroxy_nitrile__whole_environment__15A molecule_id=dev_hydroxy_nitrile regime=whole_environment n_solute_atoms=13 pbc="F F F"
N        3.28035635      -0.66169080       0.35314983        0
C        2.15831027      -0.73385542       0.06447429        0
C        0.73243394      -0.86196935      -0.26978201        0
C       -0.04632014       0.37893890       0.17338856        0
O        0.19623331       1.43984200      -0.75090623        0
C       -1.54558892       0.10702480       0.19511285        0
H        0.62677969      -1.01361408      -1.35035003        0
H        0.33971610      -1.75328585       0.23333398        0
H        0.27967031       0.71139361       1.16624298        0
H       -0.22457950       2.24463236      -0.39931858        0
H       -1.90667054      -0.17739728      -0.79946917        0
H       -2.09475082       1.01022290       0.48249281        0
H       -1.79559003      -0.69024181       0.90163072        0
O        6.09031302      20.79860854      -8.93505895        1
H        6.00174830      20.41251912      -8.06366748        1
H        5.50298117      20.28235833      -9.48710864        1
O        6.72892529      12.85245733      -9.00427563        2
H        7.62446070      12.68445985      -9.29757584        2
H        6.81415951      13.04341761      -8.07019794        2
O       10.73484260      16.04195577      -7.15776680        3
H       10.04931630      15.74266082      -7.75501723        3
H       10.26006523      16.40322087      -6.40923103        3
O        3.71663068      20.78250103      -4.86981237        4
H        4.08360171      20.36088132      -4.09276610        4
H        3.92689382      20.18607850      -5.58835354        4
25
Properties=species:S:1:pos:R:3:fragment_id:I:1 config_id=dissociation__dev_hydroxy_nitrile__whole_environment__20A molecule_id=dev_hydroxy_nitrile regime=whole_environment n_solute_atoms=13 pbc="F F F"
N        3.28035635      -0.66169080       0.35314983        0
C        2.15831027      -0.73385542       0.06447429        0
C        0.73243394      -0.86196935      -0.26978201        0
C       -0.04632014       0.37893890       0.17338856        0
O        0.19623331       1.43984200      -0.75090623        0
C       -1.54558892       0.10702480       0.19511285        0
H        0.62677969      -1.01361408      -1.35035003        0
H        0.33971610      -1.75328585       0.23333398        0
H        0.27967031       0.71139361       1.16624298        0
H       -0.22457950       2.24463236      -0.39931858        0
H       -1.90667054      -0.17739728      -0.79946917        0
H       -2.09475082       1.01022290       0.48249281        0
H       -1.79559003      -0.69024181       0.90163072        0
O        7.43391555      25.38705298     -10.90624954        1
H        7.34535083      25.00096356     -10.03485807        1
H        6.84658370      24.87080277     -11.45829923        1
O        8.07252782      17.44090177     -10.97546622        2
H        8.96806323      17.27290429     -11.26876643        2
H        8.15776204      17.63186205     -10.04138853        2
O       12.07844513      20.63040021      -9.12895739        3
H       11.39291883      20.33110526      -9.72620782        3
H       11.60366776      20.99166531      -8.38042162        3
O        5.06023321      25.37094547      -6.84100296        4
H        5.42720424      24.94932576      -6.06395669        4
H        5.27049635      24.77452294      -7.55954413        4
17
Properties=species:S:1:pos:R:3:fragment_id:I:1 config_id=dissociation__dev_oxazolidinone__single_water__3A molecule_id=dev_oxazolidinone regime=single_water n_solute_atoms=14 pbc="F F F"
O        0.50638663       2.44082653       0.27923604        0
C       -0.08288586       1.37443485       0.23426948        0
O       -1.43058537       1.24031979       0.43278175        0
C       -1.74229499      -0.15814841       0.47378631        0
C       -0.55465052      -0.84714553      -0.15268141        0
N        0.46215943       0.14645844      -0.03481290        0
C        1.83856886      -0.09444791      -0.38724547        0
H       -2.66989912      -0.35265816      -0.07213634        0
H       -1.87995160      -0.44714175       1.52116194        0
H       -0.72070202      -1.05016501      -1.21566085        0
H       -0.27889779      -1.77122217       0.36228529        0
H        2.44605030       0.79416354      -0.19674121        0
H        1.89086584      -0.34400698      -1.45059797        0
H        2.21583621      -0.93126723       0.20635533        0
O        1.42039927       5.14500125       1.20228533        1
H        1.12176782       5.48892813       2.04416739        1
H        2.30047975       4.81193895       1.37766979        1
17
Properties=species:S:1:pos:R:3:fragment_id:I:1 config_id=dissociation__dev_oxazolidinone__single_water__4A molecule_id=dev_oxazolidinone regime=single_water n_solute_atoms=14 pbc="F F F"
O        0.50638663       2.44082653       0.27923604        0
C       -0.08288586       1.37443485       0.23426948        0
O       -1.43058537       1.24031979       0.43278175        0
C       -1.74229499      -0.15814841       0.47378631        0
C       -0.55465052      -0.84714553      -0.15268141        0
N        0.46215943       0.14645844      -0.03481290        0
C        1.83856886      -0.09444791      -0.38724547        0
H       -2.66989912      -0.35265816      -0.07213634        0
H       -1.87995160      -0.44714175       1.52116194        0
H       -0.72070202      -1.05016501      -1.21566085        0
H       -0.27889779      -1.77122217       0.36228529        0
H        2.44605030       0.79416354      -0.19674121        0
H        1.89086584      -0.34400698      -1.45059797        0
H        2.21583621      -0.93126723       0.20635533        0
O        1.68111548       6.08937321       1.42296644        1
H        1.38248403       6.43330009       2.26484850        1
H        2.56119596       5.75631091       1.59835090        1
17
Properties=species:S:1:pos:R:3:fragment_id:I:1 config_id=dissociation__dev_oxazolidinone__single_water__5A molecule_id=dev_oxazolidinone regime=single_water n_solute_atoms=14 pbc="F F F"
O        0.50638663       2.44082653       0.27923604        0
C       -0.08288586       1.37443485       0.23426948        0
O       -1.43058537       1.24031979       0.43278175        0
C       -1.74229499      -0.15814841       0.47378631        0
C       -0.55465052      -0.84714553      -0.15268141        0
N        0.46215943       0.14645844      -0.03481290        0
C        1.83856886      -0.09444791      -0.38724547        0
H       -2.66989912      -0.35265816      -0.07213634        0
H       -1.87995160      -0.44714175       1.52116194        0
H       -0.72070202      -1.05016501      -1.21566085        0
H       -0.27889779      -1.77122217       0.36228529        0
H        2.44605030       0.79416354      -0.19674121        0
H        1.89086584      -0.34400698      -1.45059797        0
H        2.21583621      -0.93126723       0.20635533        0
O        1.94138894       7.03214139       1.64327277        1
H        1.64275749       7.37606827       2.48515483        1
H        2.82146942       6.69907909       1.81865723        1
17
Properties=species:S:1:pos:R:3:fragment_id:I:1 config_id=dissociation__dev_oxazolidinone__single_water__6A molecule_id=dev_oxazolidinone regime=single_water n_solute_atoms=14 pbc="F F F"
O        0.50638663       2.44082653       0.27923604        0
C       -0.08288586       1.37443485       0.23426948        0
O       -1.43058537       1.24031979       0.43278175        0
C       -1.74229499      -0.15814841       0.47378631        0
C       -0.55465052      -0.84714553      -0.15268141        0
N        0.46215943       0.14645844      -0.03481290        0
C        1.83856886      -0.09444791      -0.38724547        0
H       -2.66989912      -0.35265816      -0.07213634        0
H       -1.87995160      -0.44714175       1.52116194        0
H       -0.72070202      -1.05016501      -1.21566085        0
H       -0.27889779      -1.77122217       0.36228529        0
H        2.44605030       0.79416354      -0.19674121        0
H        1.89086584      -0.34400698      -1.45059797        0
H        2.21583621      -0.93126723       0.20635533        0
O        2.20144190       7.97411091       1.86339247        1
H        1.90281045       8.31803779       2.70527453        1
H        3.08152238       7.64104861       2.03877693        1
17
Properties=species:S:1:pos:R:3:fragment_id:I:1 config_id=dissociation__dev_oxazolidinone__single_water__8A molecule_id=dev_oxazolidinone regime=single_water n_solute_atoms=14 pbc="F F F"
O        0.50638663       2.44082653       0.27923604        0
C       -0.08288586       1.37443485       0.23426948        0
O       -1.43058537       1.24031979       0.43278175        0
C       -1.74229499      -0.15814841       0.47378631        0
C       -0.55465052      -0.84714553      -0.15268141        0
N        0.46215943       0.14645844      -0.03481290        0
C        1.83856886      -0.09444791      -0.38724547        0
H       -2.66989912      -0.35265816      -0.07213634        0
H       -1.87995160      -0.44714175       1.52116194        0
H       -0.72070202      -1.05016501      -1.21566085        0
H       -0.27889779      -1.77122217       0.36228529        0
H        2.44605030       0.79416354      -0.19674121        0
H        1.89086584      -0.34400698      -1.45059797        0
H        2.21583621      -0.93126723       0.20635533        0
O        2.72121786       9.85685477       2.30335259        1
H        2.42258641      10.20078165       3.14523465        1
H        3.60129834       9.52379247       2.47873705        1
17
Properties=species:S:1:pos:R:3:fragment_id:I:1 config_id=dissociation__dev_oxazolidinone__single_water__10A molecule_id=dev_oxazolidinone regime=single_water n_solute_atoms=14 pbc="F F F"
O        0.50638663       2.44082653       0.27923604        0
C       -0.08288586       1.37443485       0.23426948        0
O       -1.43058537       1.24031979       0.43278175        0
C       -1.74229499      -0.15814841       0.47378631        0
C       -0.55465052      -0.84714553      -0.15268141        0
N        0.46215943       0.14645844      -0.03481290        0
C        1.83856886      -0.09444791      -0.38724547        0
H       -2.66989912      -0.35265816      -0.07213634        0
H       -1.87995160      -0.44714175       1.52116194        0
H       -0.72070202      -1.05016501      -1.21566085        0
H       -0.27889779      -1.77122217       0.36228529        0
H        2.44605030       0.79416354      -0.19674121        0
H        1.89086584      -0.34400698      -1.45059797        0
H        2.21583621      -0.93126723       0.20635533        0
O        3.24077419      11.73880303       2.74312679        1
H        2.94214274      12.08272991       3.58500885        1
H        4.12085467      11.40574073       2.91851125        1
17
Properties=species:S:1:pos:R:3:fragment_id:I:1 config_id=dissociation__dev_oxazolidinone__single_water__15A molecule_id=dev_oxazolidinone regime=single_water n_solute_atoms=14 pbc="F F F"
O        0.50638663       2.44082653       0.27923604        0
C       -0.08288586       1.37443485       0.23426948        0
O       -1.43058537       1.24031979       0.43278175        0
C       -1.74229499      -0.15814841       0.47378631        0
C       -0.55465052      -0.84714553      -0.15268141        0
N        0.46215943       0.14645844      -0.03481290        0
C        1.83856886      -0.09444791      -0.38724547        0
H       -2.66989912      -0.35265816      -0.07213634        0
H       -1.87995160      -0.44714175       1.52116194        0
H       -0.72070202      -1.05016501      -1.21566085        0
H       -0.27889779      -1.77122217       0.36228529        0
H        2.44605030       0.79416354      -0.19674121        0
H        1.89086584      -0.34400698      -1.45059797        0
H        2.21583621      -0.93126723       0.20635533        0
O        4.53982065      16.44423749       3.84269403        1
H        4.24118920      16.78816437       4.68457609        1
H        5.41990113      16.11117519       4.01807849        1
17
Properties=species:S:1:pos:R:3:fragment_id:I:1 config_id=dissociation__dev_oxazolidinone__single_water__20A molecule_id=dev_oxazolidinone regime=single_water n_solute_atoms=14 pbc="F F F"
O        0.50638663       2.44082653       0.27923604        0
C       -0.08288586       1.37443485       0.23426948        0
O       -1.43058537       1.24031979       0.43278175        0
C       -1.74229499      -0.15814841       0.47378631        0
C       -0.55465052      -0.84714553      -0.15268141        0
N        0.46215943       0.14645844      -0.03481290        0
C        1.83856886      -0.09444791      -0.38724547        0
H       -2.66989912      -0.35265816      -0.07213634        0
H       -1.87995160      -0.44714175       1.52116194        0
H       -0.72070202      -1.05016501      -1.21566085        0
H       -0.27889779      -1.77122217       0.36228529        0
H        2.44605030       0.79416354      -0.19674121        0
H        1.89086584      -0.34400698      -1.45059797        0
H        2.21583621      -0.93126723       0.20635533        0
O        5.84097723      21.15731528       4.94404737        1
H        5.54234578      21.50124216       5.78592943        1
H        6.72105771      20.82425298       5.11943183        1
26
Properties=species:S:1:pos:R:3:fragment_id:I:1 config_id=dissociation__dev_oxazolidinone__whole_environment__3A molecule_id=dev_oxazolidinone regime=whole_environment n_solute_atoms=14 pbc="F F F"
O        0.50638663       2.44082653       0.27923604        0
C       -0.08288586       1.37443485       0.23426948        0
O       -1.43058537       1.24031979       0.43278175        0
C       -1.74229499      -0.15814841       0.47378631        0
C       -0.55465052      -0.84714553      -0.15268141        0
N        0.46215943       0.14645844      -0.03481290        0
C        1.83856886      -0.09444791      -0.38724547        0
H       -2.66989912      -0.35265816      -0.07213634        0
H       -1.87995160      -0.44714175       1.52116194        0
H       -0.72070202      -1.05016501      -1.21566085        0
H       -0.27889779      -1.77122217       0.36228529        0
H        2.44605030       0.79416354      -0.19674121        0
H        1.89086584      -0.34400698      -1.45059797        0
H        2.21583621      -0.93126723       0.20635533        0
O        1.91807214       6.94768278       1.62353646        1
H        1.61944069       7.29160966       2.46541852        1
H        2.79815262       6.61462048       1.79892092        1
O       -3.73735643       2.58870912       2.41421036        2
H       -3.22500650       3.17607766       1.85857776        2
H       -3.22985591       2.51990699       3.22287675        2
O        5.92870227       2.46070841      -1.37506576        3
H        5.78107392       2.18797799      -2.28063510        3
H        5.05019494       2.57613138      -1.01294111        3
O       -2.97851941       4.73723781       0.76874735        4
H       -2.89714336       4.61655557       1.71481584        4
H       -2.22274322       5.27363716       0.52935246        4
26
Properties=species:S:1:pos:R:3:fragment_id:I:1 config_id=dissociation__dev_oxazolidinone__whole_environment__4A molecule_id=dev_oxazolidinone regime=whole_environment n_solute_atoms=14 pbc="F F F"
O        0.50638663       2.44082653       0.27923604        0
C       -0.08288586       1.37443485       0.23426948        0
O       -1.43058537       1.24031979       0.43278175        0
C       -1.74229499      -0.15814841       0.47378631        0
C       -0.55465052      -0.84714553      -0.15268141        0
N        0.46215943       0.14645844      -0.03481290        0
C        1.83856886      -0.09444791      -0.38724547        0
H       -2.66989912      -0.35265816      -0.07213634        0
H       -1.87995160      -0.44714175       1.52116194        0
H       -0.72070202      -1.05016501      -1.21566085        0
H       -0.27889779      -1.77122217       0.36228529        0
H        2.44605030       0.79416354      -0.19674121        0
H        1.89086584      -0.34400698      -1.45059797        0
H        2.21583621      -0.93126723       0.20635533        0
O        2.29704222       8.32039648       1.94431258        1
H        1.99841077       8.66432336       2.78619464        1
H        3.17712270       7.98733418       2.11969704        1
O       -3.35838635       3.96142282       2.73498648        2
H       -2.84603642       4.54879136       2.17935388        2
H       -2.85088583       3.89262069       3.54365287        2
O        6.30767235       3.83342211      -1.05428964        3
H        6.16004400       3.56069169      -1.95985898        3
H        5.42916502       3.94884508      -0.69216499        3
O       -2.59954933       6.10995151       1.08952347        4
H       -2.51817328       5.98926927       2.03559196        4
H       -1.84377314       6.64635086       0.85012858        4
26
Properties=species:S:1:pos:R:3:fragment_id:I:1 config_id=dissociation__dev_oxazolidinone__whole_environment__5A molecule_id=dev_oxazolidinone regime=whole_environment n_solute_atoms=14 pbc="F F F"
O        0.50638663       2.44082653       0.27923604        0
C       -0.08288586       1.37443485       0.23426948        0
O       -1.43058537       1.24031979       0.43278175        0
C       -1.74229499      -0.15814841       0.47378631        0
C       -0.55465052      -0.84714553      -0.15268141        0
N        0.46215943       0.14645844      -0.03481290        0
C        1.83856886      -0.09444791      -0.38724547        0
H       -2.66989912      -0.35265816      -0.07213634        0
H       -1.87995160      -0.44714175       1.52116194        0
H       -0.72070202      -1.05016501      -1.21566085        0
H       -0.27889779      -1.77122217       0.36228529        0
H        2.44605030       0.79416354      -0.19674121        0
H        1.89086584      -0.34400698      -1.45059797        0
H        2.21583621      -0.93126723       0.20635533        0
O        2.64196605       9.56978711       2.23627054        1
H        2.34333460       9.91371399       3.07815260        1
H        3.52204653       9.23672481       2.41165500        1
O       -3.01346252       5.21081345       3.02694444        2
H       -2.50111259       5.79818199       2.47131184        2
H       -2.50596200       5.14201132       3.83561083        2
O        6.65259618       5.08281274      -0.76233168        3
H        6.50496783       4.81008232      -1.66790102        3
H        5.77408885       5.19823571      -0.40020703        3
O       -2.25462550       7.35934214       1.38148143        4
H       -2.17324945       7.23865990       2.32754992        4
H       -1.49884931       7.89574149       1.14208654        4
26
Properties=species:S:1:pos:R:3:fragment_id:I:1 config_id=dissociation__dev_oxazolidinone__whole_environment__6A molecule_id=dev_oxazolidinone regime=whole_environment n_solute_atoms=14 pbc="F F F"
O        0.50638663       2.44082653       0.27923604        0
C       -0.08288586       1.37443485       0.23426948        0
O       -1.43058537       1.24031979       0.43278175        0
C       -1.74229499      -0.15814841       0.47378631        0
C       -0.55465052      -0.84714553      -0.15268141        0
N        0.46215943       0.14645844      -0.03481290        0
C        1.83856886      -0.09444791      -0.38724547        0
H       -2.66989912      -0.35265816      -0.07213634        0
H       -1.87995160      -0.44714175       1.52116194        0
H       -0.72070202      -1.05016501      -1.21566085        0
H       -0.27889779      -1.77122217       0.36228529        0
H        2.44605030       0.79416354      -0.19674121        0
H        1.89086584      -0.34400698      -1.45059797        0
H        2.21583621      -0.93126723       0.20635533        0
O        3.03298239      10.98613506       2.56724312        1
H        2.73435094      11.33006194       3.40912518        1
H        3.91306287      10.65307276       2.74262758        1
O       -2.62244618       6.62716140       3.35791702        2
H       -2.11009625       7.21452994       2.80228442        2
H       -2.11494566       6.55835927       4.16658341        2
O        7.04361252       6.49916069      -0.43135910        3
H        6.89598417       6.22643027      -1.33692844        3
H        6.16510519       6.61458366      -0.06923445        3
O       -1.86360916       8.77569009       1.71245401        4
H       -1.78223311       8.65500785       2.65852250        4
H       -1.10783297       9.31208944       1.47305912        4
26
Properties=species:S:1:pos:R:3:fragment_id:I:1 config_id=dissociation__dev_oxazolidinone__whole_environment__8A molecule_id=dev_oxazolidinone regime=whole_environment n_solute_atoms=14 pbc="F F F"
O        0.50638663       2.44082653       0.27923604        0
C       -0.08288586       1.37443485       0.23426948        0
O       -1.43058537       1.24031979       0.43278175        0
C       -1.74229499      -0.15814841       0.47378631        0
C       -0.55465052      -0.84714553      -0.15268141        0
N        0.46215943       0.14645844      -0.03481290        0
C        1.83856886      -0.09444791      -0.38724547        0
H       -2.66989912      -0.35265816      -0.07213634        0
H       -1.87995160      -0.44714175       1.52116194        0
H       -0.72070202      -1.05016501      -1.21566085        0
H       -0.27889779      -1.77122217       0.36228529        0
H        2.44605030       0.79416354      -0.19674121        0
H        1.89086584      -0.34400698      -1.45059797        0
H        2.21583621      -0.93126723       0.20635533        0
O        3.72174348      13.48098050       3.15023931        1
H        3.42311203      13.82490738       3.99212137        1
H        4.60182396      13.14791820       3.32562377        1
O       -1.93368509       9.12200684       3.94091321        2
H       -1.42133516       9.70937538       3.38528061        2
H       -1.42618457       9.05320471       4.74957960        2
O        7.73237361       8.99400613       0.15163709        3
H        7.58474526       8.72127571      -0.75393225        3
H        6.85386628       9.10942910       0.51376174        3
O       -1.17484807      11.27053553       2.29545020        4
H       -1.09347202      11.14985329       3.24151869        4
H       -0.41907188      11.80693488       2.05605531        4
26
Properties=species:S:1:pos:R:3:fragment_id:I:1 config_id=dissociation__dev_oxazolidinone__whole_environment__10A molecule_id=dev_oxazolidinone regime=whole_environment n_solute_atoms=14 pbc="F F F"
O        0.50638663       2.44082653       0.27923604        0
C       -0.08288586       1.37443485       0.23426948        0
O       -1.43058537       1.24031979       0.43278175        0
C       -1.74229499      -0.15814841       0.47378631        0
C       -0.55465052      -0.84714553      -0.15268141        0
N        0.46215943       0.14645844      -0.03481290        0
C        1.83856886      -0.09444791      -0.38724547        0
H       -2.66989912      -0.35265816      -0.07213634        0
H       -1.87995160      -0.44714175       1.52116194        0
H       -0.72070202      -1.05016501      -1.21566085        0
H       -0.27889779      -1.77122217       0.36228529        0
H        2.44605030       0.79416354      -0.19674121        0
H        1.89086584      -0.34400698      -1.45059797        0
H        2.21583621      -0.93126723       0.20635533        0
O        4.33395290      15.69853882       3.66843896        1
H        4.03532145      16.04246570       4.51032102        1
H        5.21403338      15.36547652       3.84382342        1
O       -1.32147567      11.33956516       4.45911286        2
H       -0.80912574      11.92693370       3.90348026        2
H       -0.81397515      11.27076303       5.26777925        2
O        8.34458303      11.21156445       0.66983674        3
H        8.19695468      10.93883403      -0.23573260        3
H        7.46607570      11.32698742       1.03196139        3
O       -0.56263865      13.48809385       2.81364985        4
H       -0.48126260      13.36741161       3.75971834        4
H        0.19313754      14.02449320       2.57425496        4
26
Properties=species:S:1:pos:R:3:fragment_id:I:1 config_id=dissociation__dev_oxazolidinone__whole_environment__15A molecule_id=dev_oxazolidinone regime=whole_environment n_solute_atoms=14 pbc="F F F"
O        0.50638663       2.44082653       0.27923604        0
C       -0.08288586       1.37443485       0.23426948        0
O       -1.43058537       1.24031979       0.43278175        0
C       -1.74229499      -0.15814841       0.47378631        0
C       -0.55465052      -0.84714553      -0.15268141        0
N        0.46215943       0.14645844      -0.03481290        0
C        1.83856886      -0.09444791      -0.38724547        0
H       -2.66989912      -0.35265816      -0.07213634        0
H       -1.87995160      -0.44714175       1.52116194        0
H       -0.72070202      -1.05016501      -1.21566085        0
H       -0.27889779      -1.77122217       0.36228529        0
H        2.44605030       0.79416354      -0.19674121        0
H        1.89086584      -0.34400698      -1.45059797        0
H        2.21583621      -0.93126723       0.20635533        0
O        5.74196889      20.79868509       4.86024257        1
H        5.44333744      21.14261197       5.70212463        1
H        6.62204937      20.46562279       5.03562703        1
O        0.08654032      16.43971143       5.65091647        2
H        0.59889025      17.02707997       5.09528387        2
H        0.59404084      16.37090930       6.45958286        2
O        9.75259902      16.31171072       1.86164035        3
H        9.60497067      16.03898030       0.95607101        3
H        8.87409169      16.42713369       2.22376500        3
O        0.84537734      18.58824012       4.00545346        4
H        0.92675339      18.46755788       4.95152195        4
H        1.60115353      19.12463947       3.76605857        4
26
Properties=species:S:1:pos:R:3:fragment_id:I:1 config_id=dissociation__dev_oxazolidinone__whole_environment__20A molecule_id=dev_oxazolidinone regime=whole_environment n_solute_atoms=14 pbc="F F F"
O        0.50638663       2.44082653       0.27923604        0
C       -0.08288586       1.37443485       0.23426948        0
O       -1.43058537       1.24031979       0.43278175        0
C       -1.74229499      -0.15814841       0.47378631        0
C       -0.55465052      -0.84714553      -0.15268141        0
N        0.46215943       0.14645844      -0.03481290        0
C        1.83856886      -0.09444791      -0.38724547        0
H       -2.66989912      -0.35265816      -0.07213634        0
H       -1.87995160      -0.44714175       1.52116194        0
H       -0.72070202      -1.05016501      -1.21566085        0
H       -0.27889779      -1.77122217       0.36228529        0
H        2.44605030       0.79416354      -0.19674121        0
H        1.89086584      -0.34400698      -1.45059797        0
H        2.21583621      -0.93126723       0.20635533        0
O        7.09135277      25.68645284       6.00241751        1
H        6.79272132      26.03037972       6.84429957        1
H        7.97143325      25.35339054       6.17780197        1
O        1.43592420      21.32747918       6.79309141        2
H        1.94827413      21.91484772       6.23745881        2
H        1.94342472      21.25867705       7.60175780        2
O       11.10198290      21.19947847       3.00381529        3
H       10.95435455      20.92674805       2.09824595        3
H       10.22347557      21.31490144       3.36593994        3
O        2.19476122      23.47600787       5.14762840        4
H        2.27613727      23.35532563       6.09369689        4
H        2.95053741      24.01240722       4.90823351        4
19
Properties=species:S:1:pos:R:3:fragment_id:I:1 config_id=dissociation__dev_sulfonyl_amine__single_water__3A molecule_id=dev_sulfonyl_amine regime=single_water n_solute_atoms=16 pbc="F F F"
C        1.83978143       0.09966068      -0.46221228        0
S        0.65317042       1.16079694       0.34017911        0
O        1.06226299       1.31254295       1.72000783        0
O        0.44743642       2.31249524      -0.51162806        0
N       -0.75720751       0.22422181       0.30908422        0
C       -1.40865520       0.02234836      -0.99526520        0
C       -0.80727966      -0.95572635       1.18753706        0
H        1.50982827      -0.10617647      -1.48141519        0
H        1.94913834      -0.82067113       0.11315114        0
H        2.79468357       0.62998974      -0.48766162        0
H       -0.86921212      -0.72038359      -1.58956927        0
H       -2.43446094      -0.33035689      -0.84625723        0
H       -1.47431259       0.95924531      -1.55485437        0
H       -1.84363083      -1.29127818       1.29827264        0
H       -0.44242102      -0.71901369       2.19056814        0
H       -0.21912157      -1.77769474       0.77006307        0
O        3.04120407       3.28835328       4.12507104        1
H        2.14806150       3.18598723       3.79636236        1
H        3.40147823       2.40155051       4.12117110        1
19
Properties=species:S:1:pos:R:3:fragment_id:I:1 config_id=dissociation__dev_sulfonyl_amine__single_water__4A molecule_id=dev_sulfonyl_amine regime=single_water n_solute_atoms=16 pbc="F F F"
C        1.83978143       0.09966068      -0.46221228        0
S        0.65317042       1.16079694       0.34017911        0
O        1.06226299       1.31254295       1.72000783        0
O        0.44743642       2.31249524      -0.51162806        0
N       -0.75720751       0.22422181       0.30908422        0
C       -1.40865520       0.02234836      -0.99526520        0
C       -0.80727966      -0.95572635       1.18753706        0
H        1.50982827      -0.10617647      -1.48141519        0
H        1.94913834      -0.82067113       0.11315114        0
H        2.79468357       0.62998974      -0.48766162        0
H       -0.86921212      -0.72038359      -1.58956927        0
H       -2.43446094      -0.33035689      -0.84625723        0
H       -1.47431259       0.95924531      -1.55485437        0
H       -1.84363083      -1.29127818       1.29827264        0
H       -0.44242102      -0.71901369       2.19056814        0
H       -0.21912157      -1.77769474       0.77006307        0
O        3.54560631       3.83374672       4.80923922        1
H        2.65246374       3.73138067       4.48053054        1
H        3.90588047       2.94694395       4.80533928        1
19
Properties=species:S:1:pos:R:3:fragment_id:I:1 config_id=dissociation__dev_sulfonyl_amine__single_water__5A molecule_id=dev_sulfonyl_amine regime=single_water n_solute_atoms=16 pbc="F F F"
C        1.83978143       0.09966068      -0.46221228        0
S        0.65317042       1.16079694       0.34017911        0
O        1.06226299       1.31254295       1.72000783        0
O        0.44743642       2.31249524      -0.51162806        0
N       -0.75720751       0.22422181       0.30908422        0
C       -1.40865520       0.02234836      -0.99526520        0
C       -0.80727966      -0.95572635       1.18753706        0
H        1.50982827      -0.10617647      -1.48141519        0
H        1.94913834      -0.82067113       0.11315114        0
H        2.79468357       0.62998974      -0.48766162        0
H       -0.86921212      -0.72038359      -1.58956927        0
H       -2.43446094      -0.33035689      -0.84625723        0
H       -1.47431259       0.95924531      -1.55485437        0
H       -1.84363083      -1.29127818       1.29827264        0
H       -0.44242102      -0.71901369       2.19056814        0
H       -0.21912157      -1.77769474       0.77006307        0
O        4.04800598       4.37697486       5.49069114        1
H        3.15486341       4.27460881       5.16198246        1
H        4.40828014       3.49017209       5.48679120        1
19
Properties=species:S:1:pos:R:3:fragment_id:I:1 config_id=dissociation__dev_sulfonyl_amine__single_water__6A molecule_id=dev_sulfonyl_amine regime=single_water n_solute_atoms=16 pbc="F F F"
C        1.83978143       0.09966068      -0.46221228        0
S        0.65317042       1.16079694       0.34017911        0
O        1.06226299       1.31254295       1.72000783        0
O        0.44743642       2.31249524      -0.51162806        0
N       -0.75720751       0.22422181       0.30908422        0
C       -1.40865520       0.02234836      -0.99526520        0
C       -0.80727966      -0.95572635       1.18753706        0
H        1.50982827      -0.10617647      -1.48141519        0
H        1.94913834      -0.82067113       0.11315114        0
H        2.79468357       0.62998974      -0.48766162        0
H       -0.86921212      -0.72038359      -1.58956927        0
H       -2.43446094      -0.33035689      -0.84625723        0
H       -1.47431259       0.95924531      -1.55485437        0
H       -1.84363083      -1.29127818       1.29827264        0
H       -0.44242102      -0.71901369       2.19056814        0
H       -0.21912157      -1.77769474       0.77006307        0
O        4.54941377       4.91913050       6.17079767        1
H        3.65627120       4.81676445       5.84208899        1
H        4.90968793       4.03232773       6.16689773        1
19
Properties=species:S:1:pos:R:3:fragment_id:I:1 config_id=dissociation__dev_sulfonyl_amine__single_water__8A molecule_id=dev_sulfonyl_amine regime=single_water n_solute_atoms=16 pbc="F F F"
C        1.83978143       0.09966068      -0.46221228        0
S        0.65317042       1.16079694       0.34017911        0
O        1.06226299       1.31254295       1.72000783        0
O        0.44743642       2.31249524      -0.51162806        0
N       -0.75720751       0.22422181       0.30908422        0
C       -1.40865520       0.02234836      -0.99526520        0
C       -0.80727966      -0.95572635       1.18753706        0
H        1.50982827      -0.10617647      -1.48141519        0
H        1.94913834      -0.82067113       0.11315114        0
H        2.79468357       0.62998974      -0.48766162        0
H       -0.86921212      -0.72038359      -1.58956927        0
H       -2.43446094      -0.33035689      -0.84625723        0
H       -1.47431259       0.95924531      -1.55485437        0
H       -1.84363083      -1.29127818       1.29827264        0
H       -0.44242102      -0.71901369       2.19056814        0
H       -0.21912157      -1.77769474       0.77006307        0
O        5.55074967       6.00184186       7.52900370        1
H        4.65760710       5.89947581       7.20029502        1
H        5.91102383       5.11503909       7.52510376        1
19
Properties=species:S:1:pos:R:3:fragment_id:I:1 config_id=dissociation__dev_sulfonyl_amine__single_water__10A molecule_id=dev_sulfonyl_amine regime=single_water n_solute_atoms=16 pbc="F F F"
C        1.83978143       0.09966068      -0.46221228        0
S        0.65317042       1.16079694       0.34017911        0
O        1.06226299       1.31254295       1.72000783        0
O        0.44743642       2.31249524      -0.51162806        0
N       -0.75720751       0.22422181       0.30908422        0
C       -1.40865520       0.02234836      -0.99526520        0
C       -0.80727966      -0.95572635       1.18753706        0
H        1.50982827      -0.10617647      -1.48141519        0
H        1.94913834      -0.82067113       0.11315114        0
H        2.79468357       0.62998974      -0.48766162        0
H       -0.86921212      -0.72038359      -1.58956927        0
H       -2.43446094      -0.33035689      -0.84625723        0
H       -1.47431259       0.95924531      -1.55485437        0
H       -1.84363083      -1.29127818       1.29827264        0
H       -0.44242102      -0.71901369       2.19056814        0
H       -0.21912157      -1.77769474       0.77006307        0
O        6.55110255       7.08349031       8.88587638        1
H        5.65795998       6.98112426       8.55716770        1
H        6.91137671       6.19668754       8.88197644        1
19
Properties=species:S:1:pos:R:3:fragment_id:I:1 config_id=dissociation__dev_sulfonyl_amine__single_water__15A molecule_id=dev_sulfonyl_amine regime=single_water n_solute_atoms=16 pbc="F F F"
C        1.83978143       0.09966068      -0.46221228        0
S        0.65317042       1.16079694       0.34017911        0
O        1.06226299       1.31254295       1.72000783        0
O        0.44743642       2.31249524      -0.51162806        0
N       -0.75720751       0.22422181       0.30908422        0
C       -1.40865520       0.02234836      -0.99526520        0
C       -0.80727966      -0.95572635       1.18753706        0
H        1.50982827      -0.10617647      -1.48141519        0
H        1.94913834      -0.82067113       0.11315114        0
H        2.79468357       0.62998974      -0.48766162        0
H       -0.86921212      -0.72038359      -1.58956927        0
H       -2.43446094      -0.33035689      -0.84625723        0
H       -1.47431259       0.95924531      -1.55485437        0
H       -1.84363083      -1.29127818       1.29827264        0
H       -0.44242102      -0.71901369       2.19056814        0
H       -0.21912157      -1.77769474       0.77006307        0
O        9.05026912       9.78575639      12.27573098        1
H        8.15712655       9.68339034      11.94702230        1
H        9.41054328       8.89895362      12.27183104        1
19
Properties=species:S:1:pos:R:3:fragment_id:I:1 config_id=dissociation__dev_sulfonyl_amine__single_water__20A molecule_id=dev_sulfonyl_amine regime=single_water n_solute_atoms=16 pbc="F F F"
C        1.83978143       0.09966068      -0.46221228        0
S        0.65317042       1.16079694       0.34017911        0
O        1.06226299       1.31254295       1.72000783        0
O        0.44743642       2.31249524      -0.51162806        0
N       -0.75720751       0.22422181       0.30908422        0
C       -1.40865520       0.02234836      -0.99526520        0
C       -0.80727966      -0.95572635       1.18753706        0
H        1.50982827      -0.10617647      -1.48141519        0
H        1.94913834      -0.82067113       0.11315114        0
H        2.79468357       0.62998974      -0.48766162        0
H       -0.86921212      -0.72038359      -1.58956927        0
H       -2.43446094      -0.33035689      -0.84625723        0
H       -1.47431259       0.95924531      -1.55485437        0
H       -1.84363083      -1.29127818       1.29827264        0
H       -0.44242102      -0.71901369       2.19056814        0
H       -0.21912157      -1.77769474       0.77006307        0
O       11.54845680      12.48696402      15.66425783        1
H       10.65531423      12.38459797      15.33554915        1
H       11.90873096      11.60016125      15.66035789        1
28
Properties=species:S:1:pos:R:3:fragment_id:I:1 config_id=dissociation__dev_sulfonyl_amine__whole_environment__3A molecule_id=dev_sulfonyl_amine regime=whole_environment n_solute_atoms=16 pbc="F F F"
C        1.83978143       0.09966068      -0.46221228        0
S        0.65317042       1.16079694       0.34017911        0
O        1.06226299       1.31254295       1.72000783        0
O        0.44743642       2.31249524      -0.51162806        0
N       -0.75720751       0.22422181       0.30908422        0
C       -1.40865520       0.02234836      -0.99526520        0
C       -0.80727966      -0.95572635       1.18753706        0
H        1.50982827      -0.10617647      -1.48141519        0
H        1.94913834      -0.82067113       0.11315114        0
H        2.79468357       0.62998974      -0.48766162        0
H       -0.86921212      -0.72038359      -1.58956927        0
H       -2.43446094      -0.33035689      -0.84625723        0
H       -1.47431259       0.95924531      -1.55485437        0
H       -1.84363083      -1.29127818       1.29827264        0
H       -0.44242102      -0.71901369       2.19056814        0
H       -0.21912157      -1.77769474       0.77006307        0
O        4.45859161       4.82092751       6.04760704        1
H        3.56544904       4.71856146       5.71889836        1
H        4.81886577       3.93412474       6.04370710        1
O       -1.39265933      -1.41157909       5.90014746        2
H       -0.90727293      -1.39916050       5.07523676        2
H       -1.14343862      -2.23851653       6.31281601        2
O        7.25182054       1.98201868      -0.40044071        3
H        6.68288638       1.43258468      -0.93957710        3
H        6.82446032       2.00243157       0.45581766        3
O        3.64925999       4.78233214       3.22876354        4
H        4.13044827       5.59073482       3.40532738        4
H        4.29687421       4.19915938       2.83286305        4
28
Properties=species:S:1:pos:R:3:fragment_id:I:1 config_id=dissociation__dev_sulfonyl_amine__whole_environment__4A molecule_id=dev_sulfonyl_amine regime=whole_environment n_solute_atoms=16 pbc="F F F"
C        1.83978143       0.09966068      -0.46221228        0
S        0.65317042       1.16079694       0.34017911        0
O        1.06226299       1.31254295       1.72000783        0
O        0.44743642       2.31249524      -0.51162806        0
N       -0.75720751       0.22422181       0.30908422        0
C       -1.40865520       0.02234836      -0.99526520        0
C       -0.80727966      -0.95572635       1.18753706        0
H        1.50982827      -0.10617647      -1.48141519        0
H        1.94913834      -0.82067113       0.11315114        0
H        2.79468357       0.62998974      -0.48766162        0
H       -0.86921212      -0.72038359      -1.58956927        0
H       -2.43446094      -0.33035689      -0.84625723        0
H       -1.47431259       0.95924531      -1.55485437        0
H       -1.84363083      -1.29127818       1.29827264        0
H       -0.44242102      -0.71901369       2.19056814        0
H       -0.21912157      -1.77769474       0.77006307        0
O        5.26653665       5.69453172       7.14349885        1
H        4.37339408       5.59216567       6.81479017        1
H        5.62681081       4.80772895       7.13959891        1
O       -0.58471429      -0.53797488       6.99603927        2
H       -0.09932789      -0.52555629       6.17112857        2
H       -0.33549358      -1.36491232       7.40870782        2
O        8.05976558       2.85562289       0.69545110        3
H        7.49083142       2.30618889       0.15631471        3
H        7.63240536       2.87603578       1.55170947        3
O        4.45720503       5.65593635       4.32465535        4
H        4.93839331       6.46433903       4.50121919        4
H        5.10481925       5.07276359       3.92875486        4
28
Properties=species:S:1:pos:R:3:fragment_id:I:1 config_id=dissociation__dev_sulfonyl_amine__whole_environment__5A molecule_id=dev_sulfonyl_amine regime=whole_environment n_solute_atoms=16 pbc="F F F"
C        1.83978143       0.09966068      -0.46221228        0
S        0.65317042       1.16079694       0.34017911        0
O        1.06226299       1.31254295       1.72000783        0
O        0.44743642       2.31249524      -0.51162806        0
N       -0.75720751       0.22422181       0.30908422        0
C       -1.40865520       0.02234836      -0.99526520        0
C       -0.80727966      -0.95572635       1.18753706        0
H        1.50982827      -0.10617647      -1.48141519        0
H        1.94913834      -0.82067113       0.11315114        0
H        2.79468357       0.62998974      -0.48766162        0
H       -0.86921212      -0.72038359      -1.58956927        0
H       -2.43446094      -0.33035689      -0.84625723        0
H       -1.47431259       0.95924531      -1.55485437        0
H       -1.84363083      -1.29127818       1.29827264        0
H       -0.44242102      -0.71901369       2.19056814        0
H       -0.21912157      -1.77769474       0.77006307        0
O        5.89122067       6.36998188       7.99081653        1
H        4.99807810       6.26761583       7.66210785        1
H        6.25149483       5.48317911       7.98691659        1
O        0.03996973       0.13747528       7.84335695        2
H        0.52535613       0.14989387       7.01844625        2
H        0.28919044      -0.68946216       8.25602550        2
O        8.68444960       3.53107305       1.54276878        3
H        8.11551544       2.98163905       1.00363239        3
H        8.25708938       3.55148594       2.39902715        3
O        5.08188905       6.33138651       5.17197303        4
H        5.56307733       7.13978919       5.34853687        4
H        5.72950327       5.74821375       4.77607254        4
28
Properties=species:S:1:pos:R:3:fragment_id:I:1 config_id=dissociation__dev_sulfonyl_amine__whole_environment__6A molecule_id=dev_sulfonyl_amine regime=whole_environment n_solute_atoms=16 pbc="F F F"
C        1.83978143       0.09966068      -0.46221228        0
S        0.65317042       1.16079694       0.34017911        0
O        1.06226299       1.31254295       1.72000783        0
O        0.44743642       2.31249524      -0.51162806        0
N       -0.75720751       0.22422181       0.30908422        0
C       -1.40865520       0.02234836      -0.99526520        0
C       -0.80727966      -0.95572635       1.18753706        0
H        1.50982827      -0.10617647      -1.48141519        0
H        1.94913834      -0.82067113       0.11315114        0
H        2.79468357       0.62998974      -0.48766162        0
H       -0.86921212      -0.72038359      -1.58956927        0
H       -2.43446094      -0.33035689      -0.84625723        0
H       -1.47431259       0.95924531      -1.55485437        0
H       -1.84363083      -1.29127818       1.29827264        0
H       -0.44242102      -0.71901369       2.19056814        0
H       -0.21912157      -1.77769474       0.77006307        0
O        6.46391364       6.98921582       8.76761385        1
H        5.57077107       6.88684977       8.43890517        1
H        6.82418780       6.10241305       8.76371391        1
O        0.61266270       0.75670922       8.62015427        2
H        1.09804910       0.76912781       7.79524357        2
H        0.86188341      -0.07022822       9.03282282        2
O        9.25714257       4.15030699       2.31956610        3
H        8.68820841       3.60087299       1.78042971        3
H        8.82978235       4.17071988       3.17582447        3
O        5.65458202       6.95062045       5.94877035        4
H        6.13577030       7.75902313       6.12533419        4
H        6.30219624       6.36744769       5.55286986        4
28
Properties=species:S:1:pos:R:3:fragment_id:I:1 config_id=dissociation__dev_sulfonyl_amine__whole_environment__8A molecule_id=dev_sulfonyl_amine regime=whole_environment n_solute_atoms=16 pbc="F F F"
C        1.83978143       0.09966068      -0.46221228        0
S        0.65317042       1.16079694       0.34017911        0
O        1.06226299       1.31254295       1.72000783        0
O        0.44743642       2.31249524      -0.51162806        0
N       -0.75720751       0.22422181       0.30908422        0
C       -1.40865520       0.02234836      -0.99526520        0
C       -0.80727966      -0.95572635       1.18753706        0
H        1.50982827      -0.10617647      -1.48141519        0
H        1.94913834      -0.82067113       0.11315114        0
H        2.79468357       0.62998974      -0.48766162        0
H       -0.86921212      -0.72038359      -1.58956927        0
H       -2.43446094      -0.33035689      -0.84625723        0
H       -1.47431259       0.95924531      -1.55485437        0
H       -1.84363083      -1.29127818       1.29827264        0
H       -0.44242102      -0.71901369       2.19056814        0
H       -0.21912157      -1.77769474       0.77006307        0
O        7.76505285       8.39609458      10.53247130        1
H        6.87191028       8.29372853      10.20376262        1
H        8.12532701       7.50929181      10.52857136        1
O        1.91380191       2.16358798      10.38501172        2
H        2.39918831       2.17600657       9.56010102        2
H        2.16302262       1.33665054      10.79768027        2
O       10.55828178       5.55718575       4.08442355        3
H        9.98934762       5.00775175       3.54528716        3
H       10.13092156       5.57759864       4.94068192        3
O        6.95572123       8.35749921       7.71362780        4
H        7.43690951       9.16590189       7.89019164        4
H        7.60333545       7.77432645       7.31772731        4
28
Properties=species:S:1:pos:R:3:fragment_id:I:1 config_id=dissociation__dev_sulfonyl_amine__whole_environment__10A molecule_id=dev_sulfonyl_amine regime=whole_environment n_solute_atoms=16 pbc="F F F"
C        1.83978143       0.09966068      -0.46221228        0
S        0.65317042       1.16079694       0.34017911        0
O        1.06226299       1.31254295       1.72000783        0
O        0.44743642       2.31249524      -0.51162806        0
N       -0.75720751       0.22422181       0.30908422        0
C       -1.40865520       0.02234836      -0.99526520        0
C       -0.80727966      -0.95572635       1.18753706        0
H        1.50982827      -0.10617647      -1.48141519        0
H        1.94913834      -0.82067113       0.11315114        0
H        2.79468357       0.62998974      -0.48766162        0
H       -0.86921212      -0.72038359      -1.58956927        0
H       -2.43446094      -0.33035689      -0.84625723        0
H       -1.47431259       0.95924531      -1.55485437        0
H       -1.84363083      -1.29127818       1.29827264        0
H       -0.44242102      -0.71901369       2.19056814        0
H       -0.21912157      -1.77769474       0.77006307        0
O        8.94399188       9.67084232      12.13157716        1
H        8.05084931       9.56847627      11.80286848        1
H        9.30426604       8.78403955      12.12767722        1
O        3.09274094       3.43833572      11.98411758        2
H        3.57812734       3.45075431      11.15920688        2
H        3.34196165       2.61139828      12.39678613        2
O       11.73722081       6.83193349       5.68352941        3
H       11.16828665       6.28249949       5.14439302        3
H       11.30986059       6.85234638       6.53978778        3
O        8.13466026       9.63224695       9.31273366        4
H        8.61584854      10.44064963       9.48929750        4
H        8.78227448       9.04907419       8.91683317        4
28
Properties=species:S:1:pos:R:3:fragment_id:I:1 config_id=dissociation__dev_sulfonyl_amine__whole_environment__15A molecule_id=dev_sulfonyl_amine regime=whole_environment n_solute_atoms=16 pbc="F F F"
C        1.83978143       0.09966068      -0.46221228        0
S        0.65317042       1.16079694       0.34017911        0
O        1.06226299       1.31254295       1.72000783        0
O        0.44743642       2.31249524      -0.51162806        0
N       -0.75720751       0.22422181       0.30908422        0
C       -1.40865520       0.02234836      -0.99526520        0
C       -0.80727966      -0.95572635       1.18753706        0
H        1.50982827      -0.10617647      -1.48141519        0
H        1.94913834      -0.82067113       0.11315114        0
H        2.79468357       0.62998974      -0.48766162        0
H       -0.86921212      -0.72038359      -1.58956927        0
H       -2.43446094      -0.33035689      -0.84625723        0
H       -1.47431259       0.95924531      -1.55485437        0
H       -1.84363083      -1.29127818       1.29827264        0
H       -0.44242102      -0.71901369       2.19056814        0
H       -0.21912157      -1.77769474       0.77006307        0
O       11.65394417      12.60102402      15.80734026        1
H       10.76080160      12.49865797      15.47863158        1
H       12.01421833      11.71422125      15.80344032        1
O        5.80269323       6.36851742      15.65988068        2
H        6.28807963       6.38093601      14.83496998        2
H        6.05191394       5.54157998      16.07254923        2
O       14.44717310       9.76211519       9.35929251        3
H       13.87823894       9.21268119       8.82015612        3
H       14.01981288       9.78252808      10.21555088        3
O       10.84461255      12.56242865      12.98849676        4
H       11.32580083      13.37083133      13.16506060        4
H       11.49222677      11.97925589      12.59259627        4
28
Properties=species:S:1:pos:R:3:fragment_id:I:1 config_id=dissociation__dev_sulfonyl_amine__whole_environment__20A molecule_id=dev_sulfonyl_amine regime=whole_environment n_solute_atoms=16 pbc="F F F"
C        1.83978143       0.09966068      -0.46221228        0
S        0.65317042       1.16079694       0.34017911        0
O        1.06226299       1.31254295       1.72000783        0
O        0.44743642       2.31249524      -0.51162806        0
N       -0.75720751       0.22422181       0.30908422        0
C       -1.40865520       0.02234836      -0.99526520        0
C       -0.80727966      -0.95572635       1.18753706        0
H        1.50982827      -0.10617647      -1.48141519        0
H        1.94913834      -0.82067113       0.11315114        0
H        2.79468357       0.62998974      -0.48766162        0
H       -0.86921212      -0.72038359      -1.58956927        0
H       -2.43446094      -0.33035689      -0.84625723        0
H       -1.47431259       0.95924531      -1.55485437        0
H       -1.84363083      -1.29127818       1.29827264        0
H       -0.44242102      -0.71901369       2.19056814        0
H       -0.21912157      -1.77769474       0.77006307        0
O       14.25040691      15.40849323      19.32916683        1
H       13.35726434      15.30612718      19.00045815        1
H       14.61068107      14.52169046      19.32526689        1
O        8.39915597       9.17598663      19.18170725        2
H        8.88454237       9.18840522      18.35679655        2
H        8.64837668       8.34904919      19.59437580        2
O       17.04363584      12.56958440      12.88111908        3
H       16.47470168      12.02015040      12.34198269        3
H       16.61627562      12.58999729      13.73737745        3
O       13.44107529      15.36989786      16.51032333        4
H       13.92226357      16.17830054      16.68688717        4
H       14.08868951      14.78672510      16.11442284        4
19
Properties=species:S:1:pos:R:3:fragment_id:I:1 config_id=dissociation__dev_thio_amide__single_water__3A molecule_id=dev_thio_amide regime=single_water n_solute_atoms=16 pbc="F F F"
C        3.07242893      -0.04607722       0.21207785        0
S        1.55244152       0.92717312       0.22612008        0
C        0.37063560      -0.37246634       0.10514042        0
O        0.74324158      -1.53731943       0.01777185        0
N       -0.96733131       0.00854592       0.09242498        0
C       -1.97112191      -1.01084769      -0.15949407        0
C       -1.46385474       1.37423759       0.20520316        0
H        3.16038886      -0.61215783      -0.71933747        0
H        3.09920164      -0.73326379       1.06224638        0
H        3.93031634       0.62761666       0.28725278        0
H       -1.53851476      -2.00882037      -0.26546965        0
H       -2.50156817      -0.75899093      -1.08287429        0
H       -2.67883203      -1.02250788       0.67486374        0
H       -0.81565618       2.00014868       0.82114335        0
H       -2.45661706       1.36526007       0.66592107        0
H       -1.53515830       1.79946944      -0.80015130        0
O        2.14910081      -4.26633799      -0.13379605        1
H        2.39843238      -3.93607419       0.72933282        1
H        1.22976865      -4.51549761      -0.03903479        1
19
Properties=species:S:1:pos:R:3:fragment_id:I:1 config_id=dissociation__dev_thio_amide__single_water__4A molecule_id=dev_thio_amide regime=single_water n_solute_atoms=16 pbc="F F F"
C        3.07242893      -0.04607722       0.21207785        0
S        1.55244152       0.92717312       0.22612008        0
C        0.37063560      -0.37246634       0.10514042        0
O        0.74324158      -1.53731943       0.01777185        0
N       -0.96733131       0.00854592       0.09242498        0
C       -1.97112191      -1.01084769      -0.15949407        0
C       -1.46385474       1.37423759       0.20520316        0
H        3.16038886      -0.61215783      -0.71933747        0
H        3.09920164      -0.73326379       1.06224638        0
H        3.93031634       0.62761666       0.28725278        0
H       -1.53851476      -2.00882037      -0.26546965        0
H       -2.50156817      -0.75899093      -1.08287429        0
H       -2.67883203      -1.02250788       0.67486374        0
H       -0.81565618       2.00014868       0.82114335        0
H       -2.45661706       1.36526007       0.66592107        0
H       -1.53515830       1.79946944      -0.80015130        0
O        2.61575010      -5.19271779      -0.18107187        1
H        2.86508167      -4.86245399       0.68205700        1
H        1.69641794      -5.44187741      -0.08631061        1
19
Properties=species:S:1:pos:R:3:fragment_id:I:1 config_id=dissociation__dev_thio_amide__single_water__5A molecule_id=dev_thio_amide regime=single_water n_solute_atoms=16 pbc="F F F"
C        3.07242893      -0.04607722       0.21207785        0
S        1.55244152       0.92717312       0.22612008        0
C        0.37063560      -0.37246634       0.10514042        0
O        0.74324158      -1.53731943       0.01777185        0
N       -0.96733131       0.00854592       0.09242498        0
C       -1.97112191      -1.01084769      -0.15949407        0
C       -1.46385474       1.37423759       0.20520316        0
H        3.16038886      -0.61215783      -0.71933747        0
H        3.09920164      -0.73326379       1.06224638        0
H        3.93031634       0.62761666       0.28725278        0
H       -1.53851476      -2.00882037      -0.26546965        0
H       -2.50156817      -0.75899093      -1.08287429        0
H       -2.67883203      -1.02250788       0.67486374        0
H       -0.81565618       2.00014868       0.82114335        0
H       -2.45661706       1.36526007       0.66592107        0
H       -1.53515830       1.79946944      -0.80015130        0
O        3.07525891      -6.10492250      -0.22762430        1
H        3.32459048      -5.77465870       0.63550457        1
H        2.15592675      -6.35408212      -0.13286304        1
19
Properties=species:S:1:pos:R:3:fragment_id:I:1 config_id=dissociation__dev_thio_amide__single_water__6A molecule_id=dev_thio_amide regime=single_water n_solute_atoms=16 pbc="F F F"
C        3.07242893      -0.04607722       0.21207785        0
S        1.55244152       0.92717312       0.22612008        0
C        0.37063560      -0.37246634       0.10514042        0
O        0.74324158      -1.53731943       0.01777185        0
N       -0.96733131       0.00854592       0.09242498        0
C       -1.97112191      -1.01084769      -0.15949407        0
C       -1.46385474       1.37423759       0.20520316        0
H        3.16038886      -0.61215783      -0.71933747        0
H        3.09920164      -0.73326379       1.06224638        0
H        3.93031634       0.62761666       0.28725278        0
H       -1.53851476      -2.00882037      -0.26546965        0
H       -2.50156817      -0.75899093      -1.08287429        0
H       -2.67883203      -1.02250788       0.67486374        0
H       -0.81565618       2.00014868       0.82114335        0
H       -2.45661706       1.36526007       0.66592107        0
H       -1.53515830       1.79946944      -0.80015130        0
O        3.53132511      -7.01029303      -0.27382795        1
H        3.78065668      -6.68002923       0.58930092        1
H        2.61199295      -7.25945265      -0.17906669        1
19
Properties=species:S:1:pos:R:3:fragment_id:I:1 config_id=dissociation__dev_thio_amide__single_water__8A molecule_id=dev_thio_amide regime=single_water n_solute_atoms=16 pbc="F F F"
C        3.07242893      -0.04607722       0.21207785        0
S        1.55244152       0.92717312       0.22612008        0
C        0.37063560      -0.37246634       0.10514042        0
O        0.74324158      -1.53731943       0.01777185        0
N       -0.96733131       0.00854592       0.09242498        0
C       -1.97112191      -1.01084769      -0.15949407        0
C       -1.46385474       1.37423759       0.20520316        0
H        3.16038886      -0.61215783      -0.71933747        0
H        3.09920164      -0.73326379       1.06224638        0
H        3.93031634       0.62761666       0.28725278        0
H       -1.53851476      -2.00882037      -0.26546965        0
H       -2.50156817      -0.75899093      -1.08287429        0
H       -2.67883203      -1.02250788       0.67486374        0
H       -0.81565618       2.00014868       0.82114335        0
H       -2.45661706       1.36526007       0.66592107        0
H       -1.53515830       1.79946944      -0.80015130        0
O        4.47155112      -8.87680479      -0.36908141        1
H        4.72088269      -8.54654099       0.49404746        1
H        3.55221896      -9.12596441      -0.27432015        1
19
Properties=species:S:1:pos:R:3:fragment_id:I:1 config_id=dissociation__dev_thio_amide__single_water__10A molecule_id=dev_thio_amide regime=single_water n_solute_atoms=16 pbc="F F F"
C        3.07242893      -0.04607722       0.21207785        0
S        1.55244152       0.92717312       0.22612008        0
C        0.37063560      -0.37246634       0.10514042        0
O        0.74324158      -1.53731943       0.01777185        0
N       -0.96733131       0.00854592       0.09242498        0
C       -1.97112191      -1.01084769      -0.15949407        0
C       -1.46385474       1.37423759       0.20520316        0
H        3.16038886      -0.61215783      -0.71933747        0
H        3.09920164      -0.73326379       1.06224638        0
H        3.93031634       0.62761666       0.28725278        0
H       -1.53851476      -2.00882037      -0.26546965        0
H       -2.50156817      -0.75899093      -1.08287429        0
H       -2.67883203      -1.02250788       0.67486374        0
H       -0.81565618       2.00014868       0.82114335        0
H       -2.45661706       1.36526007       0.66592107        0
H       -1.53515830       1.79946944      -0.80015130        0
O        5.39568357     -10.71136804      -0.46270444        1
H        5.64501514     -10.38110424       0.40042443        1
H        4.47635141     -10.96052766      -0.36794318        1
19
Properties=species:S:1:pos:R:3:fragment_id:I:1 config_id=dissociation__dev_thio_amide__single_water__15A molecule_id=dev_thio_amide regime=single_water n_solute_atoms=16 pbc="F F F"
C        3.07242893      -0.04607722       0.21207785        0
S        1.55244152       0.92717312       0.22612008        0
C        0.37063560      -0.37246634       0.10514042        0
O        0.74324158      -1.53731943       0.01777185        0
N       -0.96733131       0.00854592       0.09242498        0
C       -1.97112191      -1.01084769      -0.15949407        0
C       -1.46385474       1.37423759       0.20520316        0
H        3.16038886      -0.61215783      -0.71933747        0
H        3.09920164      -0.73326379       1.06224638        0
H        3.93031634       0.62761666       0.28725278        0
H       -1.53851476      -2.00882037      -0.26546965        0
H       -2.50156817      -0.75899093      -1.08287429        0
H       -2.67883203      -1.02250788       0.67486374        0
H       -0.81565618       2.00014868       0.82114335        0
H       -2.45661706       1.36526007       0.66592107        0
H       -1.53515830       1.79946944      -0.80015130        0
O        7.67585182     -15.23789763      -0.69370624        1
H        7.92518339     -14.90763383       0.16942263        1
H        6.75651966     -15.48705725      -0.59894498        1
19
Properties=species:S:1:pos:R:3:fragment_id:I:1 config_id=dissociation__dev_thio_amide__single_water__20A molecule_id=dev_thio_amide regime=single_water n_solute_atoms=16 pbc="F F F"
C        3.07242893      -0.04607722       0.21207785        0
S        1.55244152       0.92717312       0.22612008        0
C        0.37063560      -0.37246634       0.10514042        0
O        0.74324158      -1.53731943       0.01777185        0
N       -0.96733131       0.00854592       0.09242498        0
C       -1.97112191      -1.01084769      -0.15949407        0
C       -1.46385474       1.37423759       0.20520316        0
H        3.16038886      -0.61215783      -0.71933747        0
H        3.09920164      -0.73326379       1.06224638        0
H        3.93031634       0.62761666       0.28725278        0
H       -1.53851476      -2.00882037      -0.26546965        0
H       -2.50156817      -0.75899093      -1.08287429        0
H       -2.67883203      -1.02250788       0.67486374        0
H       -0.81565618       2.00014868       0.82114335        0
H       -2.45661706       1.36526007       0.66592107        0
H       -1.53515830       1.79946944      -0.80015130        0
O        9.93927181     -19.73117902      -0.92301130        1
H       10.18860338     -19.40091522      -0.05988243        1
H        9.01993965     -19.98033864      -0.82825004        1
28
Properties=species:S:1:pos:R:3:fragment_id:I:1 config_id=dissociation__dev_thio_amide__whole_environment__3A molecule_id=dev_thio_amide regime=whole_environment n_solute_atoms=16 pbc="F F F"
C        3.07242893      -0.04607722       0.21207785        0
S        1.55244152       0.92717312       0.22612008        0
C        0.37063560      -0.37246634       0.10514042        0
O        0.74324158      -1.53731943       0.01777185        0
N       -0.96733131       0.00854592       0.09242498        0
C       -1.97112191      -1.01084769      -0.15949407        0
C       -1.46385474       1.37423759       0.20520316        0
H        3.16038886      -0.61215783      -0.71933747        0
H        3.09920164      -0.73326379       1.06224638        0
H        3.93031634       0.62761666       0.28725278        0
H       -1.53851476      -2.00882037      -0.26546965        0
H       -2.50156817      -0.75899093      -1.08287429        0
H       -2.67883203      -1.02250788       0.67486374        0
H       -0.81565618       2.00014868       0.82114335        0
H       -2.45661706       1.36526007       0.66592107        0
H       -1.53515830       1.79946944      -0.80015130        0
O        5.99400358     -11.89913709      -0.52331970        1
H        6.24333515     -11.56887329       0.33980917        1
H        5.07467142     -12.14829671      -0.42855844        1
O        0.05451002     -11.77607813      -1.36116822        2
H        0.75206222     -11.48605363      -0.77334294        2
H       -0.22055334     -10.98105706      -1.81780100        2
O       -0.29354351      -5.17408001       0.40735537        3
H        0.15796531      -5.91543678       0.81079281        3
H        0.38041156      -4.49960173       0.32312081        3
O        6.39223646     -10.94949340      -3.20889698        4
H        6.15769314     -11.37055698      -2.38189835        4
H        6.86348216     -11.62481279      -3.69685502        4
28
Properties=species:S:1:pos:R:3:fragment_id:I:1 config_id=dissociation__dev_thio_amide__whole_environment__4A molecule_id=dev_thio_amide regime=whole_environment n_solute_atoms=16 pbc="F F F"
C        3.07242893      -0.04607722       0.21207785        0
S        1.55244152       0.92717312       0.22612008        0
C        0.37063560      -0.37246634       0.10514042        0
O        0.74324158      -1.53731943       0.01777185        0
N       -0.96733131       0.00854592       0.09242498        0
C       -1.97112191      -1.01084769      -0.15949407        0
C       -1.46385474       1.37423759       0.20520316        0
H        3.16038886      -0.61215783      -0.71933747        0
H        3.09920164      -0.73326379       1.06224638        0
H        3.93031634       0.62761666       0.28725278        0
H       -1.53851476      -2.00882037      -0.26546965        0
H       -2.50156817      -0.75899093      -1.08287429        0
H       -2.67883203      -1.02250788       0.67486374        0
H       -0.81565618       2.00014868       0.82114335        0
H       -2.45661706       1.36526007       0.66592107        0
H       -1.53515830       1.79946944      -0.80015130        0
O        6.51120062     -12.92586294      -0.57571647        1
H        6.76053219     -12.59559914       0.28741240        1
H        5.59186846     -13.17502256      -0.48095521        1
O        0.57170706     -12.80280398      -1.41356499        2
H        1.26925926     -12.51277948      -0.82573971        2
H        0.29664370     -12.00778291      -1.87019777        2
O        0.22365353      -6.20080586       0.35495860        3
H        0.67516235      -6.94216263       0.75839604        3
H        0.89760860      -5.52632758       0.27072404        3
O        6.90943350     -11.97621925      -3.26129375        4
H        6.67489018     -12.39728283      -2.43429512        4
H        7.38067920     -12.65153864      -3.74925179        4
28
Properties=species:S:1:pos:R:3:fragment_id:I:1 config_id=dissociation__dev_thio_amide__whole_environment__5A molecule_id=dev_thio_amide regime=whole_environment n_solute_atoms=16 pbc="F F F"
C        3.07242893      -0.04607722       0.21207785        0
S        1.55244152       0.92717312       0.22612008        0
C        0.37063560      -0.37246634       0.10514042        0
O        0.74324158      -1.53731943       0.01777185        0
N       -0.96733131       0.00854592       0.09242498        0
C       -1.97112191      -1.01084769      -0.15949407        0
C       -1.46385474       1.37423759       0.20520316        0
H        3.16038886      -0.61215783      -0.71933747        0
H        3.09920164      -0.73326379       1.06224638        0
H        3.93031634       0.62761666       0.28725278        0
H       -1.53851476      -2.00882037      -0.26546965        0
H       -2.50156817      -0.75899093      -1.08287429        0
H       -2.67883203      -1.02250788       0.67486374        0
H       -0.81565618       2.00014868       0.82114335        0
H       -2.45661706       1.36526007       0.66592107        0
H       -1.53515830       1.79946944      -0.80015130        0
O        6.99759618     -13.89144251      -0.62499277        1
H        7.24692775     -13.56117871       0.23813610        1
H        6.07826402     -14.14060213      -0.53023151        1
O        1.05810262     -13.76838355      -1.46284129        2
H        1.75565482     -13.47835905      -0.87501601        2
H        0.78303926     -12.97336248      -1.91947407        2
O        0.71004909      -7.16638543       0.30568230        3
H        1.16155791      -7.90774220       0.70911974        3
H        1.38400416      -6.49190715       0.22144774        3
O        7.39582906     -12.94179882      -3.31057005        4
H        7.16128574     -13.36286240      -2.48357142        4
H        7.86707476     -13.61711821      -3.79852809        4
28
Properties=species:S:1:pos:R:3:fragment_id:I:1 config_id=dissociation__dev_thio_amide__whole_environment__6A molecule_id=dev_thio_amide regime=whole_environment n_solute_atoms=16 pbc="F F F"
C        3.07242893      -0.04607722       0.21207785        0
S        1.55244152       0.92717312       0.22612008        0
C        0.37063560      -0.37246634       0.10514042        0
O        0.74324158      -1.53731943       0.01777185        0
N       -0.96733131       0.00854592       0.09242498        0
C       -1.97112191      -1.01084769      -0.15949407        0
C       -1.46385474       1.37423759       0.20520316        0
H        3.16038886      -0.61215783      -0.71933747        0
H        3.09920164      -0.73326379       1.06224638        0
H        3.93031634       0.62761666       0.28725278        0
H       -1.53851476      -2.00882037      -0.26546965        0
H       -2.50156817      -0.75899093      -1.08287429        0
H       -2.67883203      -1.02250788       0.67486374        0
H       -0.81565618       2.00014868       0.82114335        0
H       -2.45661706       1.36526007       0.66592107        0
H       -1.53515830       1.79946944      -0.80015130        0
O        7.47063716     -14.83051094      -0.67291613        1
H        7.71996873     -14.50024714       0.19021274        1
H        6.55130500     -15.07967056      -0.57815487        1
O        1.53114360     -14.70745198      -1.51076465        2
H        2.22869580     -14.41742748      -0.92293937        2
H        1.25608024     -13.91243091      -1.96739743        2
O        1.18309007      -8.10545386       0.25775894        3
H        1.63459889      -8.84681063       0.66119638        3
H        1.85704514      -7.43097558       0.17352438        3
O        7.86887004     -13.88086725      -3.35849341        4
H        7.63432672     -14.30193083      -2.53149478        4
H        8.34011574     -14.55618664      -3.84645145        4
28
Properties=species:S:1:pos:R:3:fragment_id:I:1 config_id=dissociation__dev_thio_amide__whole_environment__8A molecule_id=dev_thio_amide regime=whole_environment n_solute_atoms=16 pbc="F F F"
C        3.07242893      -0.04607722       0.21207785        0
S        1.55244152       0.92717312       0.22612008        0
C        0.37063560      -0.37246634       0.10514042        0
O        0.74324158      -1.53731943       0.01777185        0
N       -0.96733131       0.00854592       0.09242498        0
C       -1.97112191      -1.01084769      -0.15949407        0
C       -1.46385474       1.37423759       0.20520316        0
H        3.16038886      -0.61215783      -0.71933747        0
H        3.09920164      -0.73326379       1.06224638        0
H        3.93031634       0.62761666       0.28725278        0
H       -1.53851476      -2.00882037      -0.26546965        0
H       -2.50156817      -0.75899093      -1.08287429        0
H       -2.67883203      -1.02250788       0.67486374        0
H       -0.81565618       2.00014868       0.82114335        0
H       -2.45661706       1.36526007       0.66592107        0
H       -1.53515830       1.79946944      -0.80015130        0
O        8.39815192     -16.67178866      -0.76688182        1
H        8.64748349     -16.34152486       0.09624705        1
H        7.47881976     -16.92094828      -0.67212056        1
O        2.45865836     -16.54872970      -1.60473034        2
H        3.15621056     -16.25870520      -1.01690506        2
H        2.18359500     -15.75370863      -2.06136312        2
O        2.11060483      -9.94673158       0.16379325        3
H        2.56211365     -10.68808835       0.56723069        3
H        2.78455990      -9.27225330       0.07955869        3
O        8.79638480     -15.72214497      -3.45245910        4
H        8.56184148     -16.14320855      -2.62546047        4
H        9.26763050     -16.39746436      -3.94041714        4
28
Properties=species:S:1:pos:R:3:fragment_id:I:1 config_id=dissociation__dev_thio_amide__whole_environment__10A molecule_id=dev_thio_amide regime=whole_environment n_solute_atoms=16 pbc="F F F"
C        3.07242893      -0.04607722       0.21207785        0
S        1.55244152       0.92717312       0.22612008        0
C        0.37063560      -0.37246634       0.10514042        0
O        0.74324158      -1.53731943       0.01777185        0
N       -0.96733131       0.00854592       0.09242498        0
C       -1.97112191      -1.01084769      -0.15949407        0
C       -1.46385474       1.37423759       0.20520316        0
H        3.16038886      -0.61215783      -0.71933747        0
H        3.09920164      -0.73326379       1.06224638        0
H        3.93031634       0.62761666       0.28725278        0
H       -1.53851476      -2.00882037      -0.26546965        0
H       -2.50156817      -0.75899093      -1.08287429        0
H       -2.67883203      -1.02250788       0.67486374        0
H       -0.81565618       2.00014868       0.82114335        0
H       -2.45661706       1.36526007       0.66592107        0
H       -1.53515830       1.79946944      -0.80015130        0
O        9.31384991     -18.48960804      -0.85965036        1
H        9.56318148     -18.15934424       0.00347851        1
H        8.39451775     -18.73876766      -0.76488910        1
O        3.37435635     -18.36654908      -1.69749888        2
H        4.07190855     -18.07652458      -1.10967360        2
H        3.09929299     -17.57152801      -2.15413166        2
O        3.02630282     -11.76455096       0.07102471        3
H        3.47781164     -12.50590773       0.47446215        3
H        3.70025789     -11.09007268      -0.01320985        3
O        9.71208279     -17.53996435      -3.54522764        4
H        9.47753947     -17.96102793      -2.71822901        4
H       10.18332849     -18.21528374      -4.03318568        4
28
Properties=species:S:1:pos:R:3:fragment_id:I:1 config_id=dissociation__dev_thio_amide__whole_environment__15A molecule_id=dev_thio_amide regime=whole_environment n_solute_atoms=16 pbc="F F F"
C        3.07242893      -0.04607722       0.21207785        0
S        1.55244152       0.92717312       0.22612008        0
C        0.37063560      -0.37246634       0.10514042        0
O        0.74324158      -1.53731943       0.01777185        0
N       -0.96733131       0.00854592       0.09242498        0
C       -1.97112191      -1.01084769      -0.15949407        0
C       -1.46385474       1.37423759       0.20520316        0
H        3.16038886      -0.61215783      -0.71933747        0
H        3.09920164      -0.73326379       1.06224638        0
H        3.93031634       0.62761666       0.28725278        0
H       -1.53851476      -2.00882037      -0.26546965        0
H       -2.50156817      -0.75899093      -1.08287429        0
H       -2.67883203      -1.02250788       0.67486374        0
H       -0.81565618       2.00014868       0.82114335        0
H       -2.45661706       1.36526007       0.66592107        0
H       -1.53515830       1.79946944      -0.80015130        0
O       11.58312607     -22.99451493      -1.08954870        1
H       11.83245764     -22.66425113      -0.22641983        1
H       10.66379391     -23.24367455      -0.99478744        1
O        5.64363251     -22.87145597      -1.92739722        2
H        6.34118471     -22.58143147      -1.33957194        2
H        5.36856915     -22.07643490      -2.38403000        2
O        5.29557898     -16.26945785      -0.15887363        3
H        5.74708780     -17.01081462       0.24456381        3
H        5.96953405     -15.59497957      -0.24310819        3
O       11.98135895     -22.04487124      -3.77512598        4
H       11.74681563     -22.46593482      -2.94812735        4
H       12.45260465     -22.72019063      -4.26308402        4
28
Properties=species:S:1:pos:R:3:fragment_id:I:1 config_id=dissociation__dev_thio_amide__whole_environment__20A molecule_id=dev_thio_amide regime=whole_environment n_solute_atoms=16 pbc="F F F"
C        3.07242893      -0.04607722       0.21207785        0
S        1.55244152       0.92717312       0.22612008        0
C        0.37063560      -0.37246634       0.10514042        0
O        0.74324158      -1.53731943       0.01777185        0
N       -0.96733131       0.00854592       0.09242498        0
C       -1.97112191      -1.01084769      -0.15949407        0
C       -1.46385474       1.37423759       0.20520316        0
H        3.16038886      -0.61215783      -0.71933747        0
H        3.09920164      -0.73326379       1.06224638        0
H        3.93031634       0.62761666       0.28725278        0
H       -1.53851476      -2.00882037      -0.26546965        0
H       -2.50156817      -0.75899093      -1.08287429        0
H       -2.67883203      -1.02250788       0.67486374        0
H       -0.81565618       2.00014868       0.82114335        0
H       -2.45661706       1.36526007       0.66592107        0
H       -1.53515830       1.79946944      -0.80015130        0
O       13.84120813     -27.47719962      -1.31831297        1
H       14.09053970     -27.14693582      -0.45518410        1
H       12.92187597     -27.72635924      -1.22355171        1
O        7.90171457     -27.35414066      -2.15616149        2
H        8.59926677     -27.06411616      -1.56833621        2
H        7.62665121     -26.55911959      -2.61279427        2
O        7.55366104     -20.75214254      -0.38763790        3
H        8.00516986     -21.49349931       0.01579954        3
H        8.22761611     -20.07766426      -0.47187246        3
O       14.23944101     -26.52755593      -4.00389025        4
H       14.00489769     -26.94861951      -3.17689162        4
H       14.71068671     -27.20287532      -4.49184829        4
