13
Properties=species:S:1:pos:R:3:fragment_id:I:1 config_id=dissociation__stress_acetamidine__single_water__50A molecule_id=stress_acetamidine regime=single_water n_solute_atoms=10 pbc="F F F"
C       -1.25304612      -0.29042184       0.00481029        0
C        0.12364562       0.31516125      -0.05679660        0
N        0.24625952       1.57418270      -0.29918618        0
N        1.19654725      -0.48706377       0.14567486        0
H       -1.33894047      -1.07441563      -0.75289939        0
H       -2.01900409       0.46857509      -0.17636534        0
H       -1.41179649      -0.73117477       0.99308295        0
H        1.23527122       1.82800961      -0.30781948        0
H        2.13982274      -0.12823087       0.11448995        0
H        1.08124082      -1.47462178       0.33500894        0
O       33.63045797      32.92881886      21.67607325        1
H       34.41459824      33.45710098      21.52682884        1
H       33.64589604      32.73590095      22.61350388        1
13
Properties=species:S:1:pos:R:3:fragment_id:I:1 config_id=dissociation__stress_acetamidine__single_water__100A molecule_id=stress_acetamidine regime=single_water n_solute_atoms=10 pbc="F F F"
C       -1.25304612      -0.29042184       0.00481029        0
C        0.12364562       0.31516125      -0.05679660        0
N        0.24625952       1.57418270      -0.29918618        0
N        1.19654725      -0.48706377       0.14567486        0
H       -1.33894047      -1.07441563      -0.75289939        0
H       -2.01900409       0.46857509      -0.17636534        0
H       -1.41179649      -0.73117477       0.99308295        0
H        1.23527122       1.82800961      -0.30781948        0
H        2.13982274      -0.12823087       0.11448995        0
H        1.08124082      -1.47462178       0.33500894        0
O       66.08582260      64.70706060      42.59475542        1
H       66.86996287      65.23534272      42.44551101        1
H       66.10126067      64.51414269      43.53218605        1
19
Properties=species:S:1:pos:R:3:fragment_id:I:1 config_id=dissociation__stress_acetamidine__whole_environment__50A molecule_id=stress_acetamidine regime=whole_environment n_solute_atoms=10 pbc="F F F"
C       -1.25304612      -0.29042184       0.00481029        0
C        0.12364562       0.31516125      -0.05679660        0
N        0.24625952       1.57418270      -0.29918618        0
N        1.19654725      -0.48706377       0.14567486        0
H       -1.33894047      -1.07441563      -0.75289939        0
H       -2.01900409       0.46857509      -0.17636534        0
H       -1.41179649      -0.73117477       0.99308295        0
H        1.23527122       1.82800961      -0.30781948        0
H        2.13982274      -0.12823087       0.11448995        0
H        1.08124082      -1.47462178       0.33500894        0
O       37.46410774      36.68248642      24.14700224        1
H       38.24824801      37.21076854      23.99775783        1
H       37.47954581      36.48956851      25.08443287        1
O       32.20567971      33.52638203      23.06852288        2
H       31.83603075      34.35802529      23.36510504        2
H       32.07678526      32.92988632      23.80595825        2
O       36.03313863      39.71564762      22.85729602        3
H       35.64870080      38.85072032      22.71467712        3
H       35.35492785      40.20609989      23.32175113        3
19
Properties=species:S:1:pos:R:3:fragment_id:I:1 config_id=dissociation__stress_acetamidine__whole_environment__100A molecule_id=stress_acetamidine regime=whole_environment n_solute_atoms=10 pbc="F F F"
C       -1.25304612      -0.29042184       0.00481029        0
C        0.12364562       0.31516125      -0.05679660        0
N        0.24625952       1.57418270      -0.29918618        0
N        1.19654725      -0.48706377       0.14567486        0
H       -1.33894047      -1.07441563      -0.75289939        0
H       -2.01900409       0.46857509      -0.17636534        0
H       -1.41179649      -0.73117477       0.99308295        0
H        1.23527122       1.82800961      -0.30781948        0
H        2.13982274      -0.12823087       0.11448995        0
H        1.08124082      -1.47462178       0.33500894        0
O       69.95738901      68.49785373      45.09012308        1
H       70.74152928      69.02613585      44.94087867        1
H       69.97282708      68.30493582      46.02755371        1
O       64.69896098      65.34174934      44.01164372        2
H       64.32931202      66.17339260      44.30822588        2
H       64.57006653      64.74525363      44.74907909        2
O       68.52641990      71.53101493      43.80041686        3
H       68.14198207      70.66608763      43.65779796        3
H       67.84820912      72.02146720      44.26487197        3
14
Properties=species:S:1:pos:R:3:fragment_id:I:1 config_id=dissociation__stress_dimethyl_sulfone__single_water__50A molecule_id=stress_dimethyl_sulfone regime=single_water n_solute_atoms=11 pbc="F F F"
C        1.36056946      -0.42353116       0.03232429        0
S        0.05728410       0.78043226       0.10690922        0
O        0.02797016       1.32029865       1.45213484        0
O        0.19008790       1.65049854      -1.04517368        0
C       -1.40632911      -0.19988419      -0.11772434        0
H        1.21717294      -1.14868262       0.83539551        0
H        1.33259294      -0.91359864      -0.94255167        0
H        2.31204970       0.09611812       0.16280122        0
H       -1.35261461      -0.69655516      -1.08816955        0
H       -1.46803310      -0.93163943       0.68977725        0
H       -2.27075039       0.46654362      -0.08572310        0
O       42.27139299     -28.28637101      10.15253088        1
H       42.21279272     -29.12144285      10.61669990        1
H       42.51458195     -27.65302032      10.82777740        1
14
Properties=species:S:1:pos:R:3:fragment_id:I:1 config_id=dissociation__stress_dimethyl_sulfone__single_water__100A molecule_id=stress_dimethyl_sulfone regime=single_water n_solute_atoms=11 pbc="F F F"
C        1.36056946      -0.42353116       0.03232429        0
S        0.05728410       0.78043226       0.10690922        0
O        0.02797016       1.32029865       1.45213484        0
O        0.19008790       1.65049854      -1.04517368        0
C       -1.40632911      -0.19988419      -0.11772434        0
H        1.21717294      -1.14868262       0.83539551        0
H        1.33259294      -0.91359864      -0.94255167        0
H        2.31204970       0.09611812       0.16280122        0
H       -1.35261461      -0.69655516      -1.08816955        0
H       -1.46803310      -0.93163943       0.68977725        0
H       -2.27075039       0.46654362      -0.08572310        0
O       83.02741976     -55.55871792      19.94110871        1
H       82.96881949     -56.39378976      20.40527773        1
H       83.27060872     -54.92536723      20.61635523        1
20
Properties=species:S:1:pos:R:3:fragment_id:I:1 config_id=dissociation__stress_dimethyl_sulfone__whole_environment__50A molecule_id=stress_dimethyl_sulfone regime=whole_environment n_solute_atoms=11 pbc="F F F"
C        1.36056946      -0.42353116       0.03232429        0
S        0.05728410       0.78043226       0.10690922        0
O        0.02797016       1.32029865       1.45213484        0
O        0.19008790       1.65049854      -1.04517368        0
C       -1.40632911      -0.19988419      -0.11772434        0
H        1.21717294      -1.14868262       0.83539551        0
H        1.33259294      -0.91359864      -0.94255167        0
H        2.31204970       0.09611812       0.16280122        0
H       -1.35261461      -0.69655516      -1.08816955        0
H       -1.46803310      -0.93163943       0.68977725        0
H       -2.27075039       0.46654362      -0.08572310        0
O       48.59608278     -32.51860727      11.67156311        1
H       48.53748251     -33.35367911      12.13573213        1
H       48.83927174     -31.88525658      12.34680963        1
O       41.20187840     -31.71107680      10.49350764        2
H       41.29897822     -30.76500663      10.60192677        2
H       40.27398538     -31.83582374      10.29429776        2
O       43.39761544     -26.43717889      10.85928489        3
H       44.28323432     -26.77949516      10.98065462        3
H       42.92178298     -26.72032445      11.64008186        3
20
Properties=species:S:1:pos:R:3:fragment_id:I:1 config_id=dissociation__stress_dimethyl_sulfone__whole_environment__100A molecule_id=stress_dimethyl_sulfone regime=whole_environment n_solute_atoms=11 pbc="F F F"
C        1.36056946      -0.42353116       0.03232429        0
S        0.05728410       0.78043226       0.10690922        0
O        0.02797016       1.32029865       1.45213484        0
O        0.19008790       1.65049854      -1.04517368        0
C       -1.40632911      -0.19988419      -0.11772434        0
H        1.21717294      -1.14868262       0.83539551        0
H        1.33259294      -0.91359864      -0.94255167        0
H        2.31204970       0.09611812       0.16280122        0
H       -1.35261461      -0.69655516      -1.08816955        0
H       -1.46803310      -0.93163943       0.68977725        0
H       -2.27075039       0.46654362      -0.08572310        0
O       89.35936139     -59.79580683      21.46188265        1
H       89.30076112     -60.63087867      21.92605167        1
H       89.60255035     -59.16245614      22.13712917        1
O       81.96515701     -58.98827636      20.28382718        2
H       82.06225683     -58.04220619      20.39224631        2
H       81.03726399     -59.11302330      20.08461730        2
O       84.16089405     -53.71437845      20.64960443        3
H       85.04651293     -54.05669472      20.77097416        3
H       83.68506159     -53.99752401      21.43040140        3
13
Properties=species:S:1:pos:R:3:fragment_id:I:1 config_id=dissociation__stress_methanesulfonamide__single_water__50A molecule_id=stress_methanesulfonamide regime=single_water n_solute_atoms=10 pbc="F F F"
C       -1.29752624      -0.31432314       0.07438361        0
S        0.19228231       0.64338671      -0.09761863        0
O        0.29594739       1.13612332      -1.45030644        0
O        0.35147654       1.49942606       1.05353476        0
N        1.37468474      -0.53513056       0.04715927        0
H       -1.29796966      -0.79497464       1.05432818        0
H       -2.14633726       0.36812632      -0.00581235        0
H       -1.33749119      -1.05353679      -0.72766566        0
H        1.91373278      -0.59711652      -0.81872473        0
H        1.95120059      -0.35198074       0.87072198        0
O       24.67381224      40.43966901     -20.44901696        1
H       25.62795902      40.44915533     -20.52481782        1
H       24.45895689      41.26761034     -20.01938669        1
13
Properties=species:S:1:pos:R:3:fragment_id:I:1 config_id=dissociation__stress_methanesulfonamide__single_water__100A molecule_id=stress_methanesulfonamide regime=single_water n_solute_atoms=10 pbc="F F F"
C       -1.29752624      -0.31432314       0.07438361        0
S        0.19228231       0.64338671      -0.09761863        0
O        0.29594739       1.13612332      -1.45030644        0
O        0.35147654       1.49942606       1.05353476        0
N        1.37468474      -0.53513056       0.04715927        0
H       -1.29796966      -0.79497464       1.05432818        0
H       -2.14633726       0.36812632      -0.00581235        0
H       -1.33749119      -1.05353679      -0.72766566        0
H        1.91373278      -0.59711652      -0.81872473        0
H        1.95120059      -0.35198074       0.87072198        0
O       48.58574768      79.63064386     -40.26661014        1
H       49.53989446      79.64013018     -40.34241100        1
H       48.37089233      80.45858519     -39.83697987        1
19
Properties=species:S:1:pos:R:3:fragment_id:I:1 config_id=dissociation__stress_methanesulfonamide__whole_environment__50A molecule_id=stress_methanesulfonamide regime=whole_environment n_solute_atoms=10 pbc="F F F"
C       -1.29752624      -0.31432314       0.07438361        0
S        0.19228231       0.64338671      -0.09761863        0
O        0.29594739       1.13612332      -1.45030644        0
O        0.35147654       1.49942606       1.05353476        0
N        1.37468474      -0.53513056       0.04715927        0
H       -1.29796966      -0.79497464       1.05432818        0
H       -2.14633726       0.36812632      -0.00581235        0
H       -1.33749119      -1.05353679      -0.72766566        0
H        1.91373278      -0.59711652      -0.81872473        0
H        1.95120059      -0.35198074       0.87072198        0
O       27.51555186      45.09719857     -22.80417720        1
H       28.46969864      45.10668489     -22.87997806        1
H       27.30069651      45.92513990     -22.37454693        1
O       29.42146532      40.74627842     -21.68529472        2
H       29.84469714      40.79639522     -20.82820956        2
H       30.02380882      41.19702041     -22.27711040        2
O       21.79332015      40.77595174     -23.05000474        3
H       22.60316453      41.26176956     -22.89391192        3
H       21.69662296      40.77026848     -24.00229104        3
19
Properties=species:S:1:pos:R:3:fragment_id:I:1 config_id=dissociation__stress_methanesulfonamide__whole_environment__100A molecule_id=stress_methanesulfonamide regime=whole_environment n_solute_atoms=10 pbc="F F F"
C       -1.29752624      -0.31432314       0.07438361        0
S        0.19228231       0.64338671      -0.09761863        0
O        0.29594739       1.13612332      -1.45030644        0
O        0.35147654       1.49942606       1.05353476        0
N        1.37468474      -0.53513056       0.04715927        0
H       -1.29796966      -0.79497464       1.05432818        0
H       -2.14633726       0.36812632      -0.00581235        0
H       -1.33749119      -1.05353679      -0.72766566        0
H        1.91373278      -0.59711652      -0.81872473        0
H        1.95120059      -0.35198074       0.87072198        0
O       51.44736280      84.32074877     -42.63824268        1
H       52.40150958      84.33023509     -42.71404354        1
H       51.23250745      85.14869010     -42.20861241        1
O       53.35327626      79.96982862     -41.51936020        2
H       53.77650808      80.01994542     -40.66227504        2
H       53.95561976      80.42057061     -42.11117588        2
O       45.72513109      79.99950194     -42.88407022        3
H       46.53497547      80.48531976     -42.72797740        3
H       45.62843390      79.99381868     -43.83635652        3
13
Properties=species:S:1:pos:R:3:fragment_id:I:1 config_id=dissociation__stress_methyl_sulfoxide__single_water__50A molecule_id=stress_methyl_sulfoxide regime=single_water n_solute_atoms=10 pbc="F F F"
C        1.33574772      -0.12709590      -0.21493118        0
S        0.07665144       0.41184762       0.96707515        0
O       -0.01327127       1.90664493       0.88010813        0
C       -1.33020716      -0.27159803       0.05791436        0
H        1.34236120      -1.21823882      -0.26836233        0
H        2.31087043       0.22364491       0.13115206        0
H        1.12755682       0.29569439      -1.20068659        0
H       -1.23071746      -1.35770665      -0.00502162        0
H       -1.37185545       0.16021845      -0.94488595        0
H       -2.24713626      -0.02341091       0.59763797        0
O       -0.68484465      51.30484229      12.90798492        1
H       -0.79932974      51.42035434      11.96470236        1
H       -0.91717434      50.39010308      13.06769384        1
13
Properties=species:S:1:pos:R:3:fragment_id:I:1 config_id=dissociation__stress_methyl_sulfoxide__single_water__100A molecule_id=stress_methyl_sulfoxide regime=single_water n_solute_atoms=10 pbc="F F F"
C        1.33574772      -0.12709590      -0.21493118        0
S        0.07665144       0.41184762       0.96707515        0
O       -0.01327127       1.90664493       0.88010813        0
C       -1.33020716      -0.27159803       0.05791436        0
H        1.34236120      -1.21823882      -0.26836233        0
H        2.31087043       0.22364491       0.13115206        0
H        1.12755682       0.29569439      -1.20068659        0
H       -1.23071746      -1.35770665      -0.00502162        0
H       -1.37185545       0.16021845      -0.94488595        0
H       -2.24713626      -0.02341091       0.59763797        0
O       -1.33205044      99.78998561      25.10655081        1
H       -1.44653553      99.90549766      24.16326825        1
H       -1.56438013      98.87524640      25.26625973        1
19
Properties=species:S:1:pos:R:3:fragment_id:I:1 config_id=dissociation__stress_methyl_sulfoxide__whole_environment__50A molecule_id=stress_methyl_sulfoxide regime=whole_environment n_solute_atoms=10 pbc="F F F"
C        1.33574772      -0.12709590      -0.21493118        0
S        0.07665144       0.41184762       0.96707515        0
O       -0.01327127       1.90664493       0.88010813        0
C       -1.33020716      -0.27159803       0.05791436        0
H        1.34236120      -1.21823882      -0.26836233        0
H        2.31087043       0.22364491       0.13115206        0
H        1.12755682       0.29569439      -1.20068659        0
H       -1.23071746      -1.35770665      -0.00502162        0
H       -1.37185545       0.16021845      -0.94488595        0
H       -2.24713626      -0.02341091       0.59763797        0
O       -0.74029087      55.45857224      13.95303800        1
H       -0.85477596      55.57408429      13.00975544        1
H       -0.97262056      54.54383303      14.11274692        1
O       -0.12911241      49.86271149      16.03343182        2
H        0.67360176      49.79054262      16.54983617        2
H       -0.13655582      50.76946751      15.72688664        2
O        4.43928874      50.68618888      11.30192604        3
H        3.59032761      50.58169263      11.73155072        3
H        4.22894099      51.03931514      10.43746812        3
19
Properties=species:S:1:pos:R:3:fragment_id:I:1 config_id=dissociation__stress_methyl_sulfoxide__whole_environment__100A molecule_id=stress_methyl_sulfoxide regime=whole_environment n_solute_atoms=10 pbc="F F F"
C        1.33574772      -0.12709590      -0.21493118        0
S        0.07665144       0.41184762       0.96707515        0
O       -0.01327127       1.90664493       0.88010813        0
C       -1.33020716      -0.27159803       0.05791436        0
H        1.34236120      -1.21823882      -0.26836233        0
H        2.31087043       0.22364491       0.13115206        0
H        1.12755682       0.29569439      -1.20068659        0
H       -1.23071746      -1.35770665      -0.00502162        0
H       -1.37185545       0.16021845      -0.94488595        0
H       -2.24713626      -0.02341091       0.59763797        0
O       -1.38878354     104.04012176      26.17585910        1
H       -1.50326863     104.15563381      25.23257654        1
H       -1.62111323     103.12538255      26.33556802        1
O       -0.77760508      98.44426101      28.25625292        2
H        0.02510909      98.37209214      28.77265727        2
H       -0.78504849      99.35101703      27.94970774        2
O        3.79079607      99.26773840      23.52474714        3
H        2.94183494      99.16324215      23.95437182        3
H        3.58044832      99.62086466      22.66028922        3
13
Properties=species:S:1:pos:R:3:fragment_id:I:1 config_id=dissociation__stress_nitroethane__single_water__50A molecule_id=stress_nitroethane regime=single_water n_solute_atoms=10 pbc="F F F"
C       -1.08655935      -0.26912393       0.19921890        0
C        0.07989359       0.51994263      -0.35712221        0
N        1.35131897      -0.14039219       0.07755178        0
O        1.84023896       0.23136064       1.15159617        0
O        1.81524379      -1.01344334      -0.66633626        0
H       -1.08003052      -1.30191745      -0.16584906        0
H       -1.05995946      -0.30242604       1.29382519        0
H       -2.03250044       0.19100393      -0.10284164        0
H        0.09629761       1.54650252       0.02103456        0
H        0.07605685       0.53849323      -1.45107745        0
O       46.67977181      -1.93650806      24.02002102        1
H       46.44806997      -1.06439271      23.70070782        1
H       47.59814701      -1.86105567      24.27910746        1
13
Properties=species:S:1:pos:R:3:fragment_id:I:1 config_id=dissociation__stress_nitroethane__single_water__100A molecule_id=stress_nitroethane regime=single_water n_solute_atoms=10 pbc="F F F"
C       -1.08655935      -0.26912393       0.19921890        0
C        0.07989359       0.51994263      -0.35712221        0
N        1.35131897      -0.14039219       0.07755178        0
O        1.84023896       0.23136064       1.15159617        0
O        1.81524379      -1.01344334      -0.66633626        0
H       -1.08003052      -1.30191745      -0.16584906        0
H       -1.05995946      -0.30242604       1.29382519        0
H       -2.03250044       0.19100393      -0.10284164        0
H        0.09629761       1.54650252       0.02103456        0
H        0.07605685       0.53849323      -1.45107745        0
O       91.11070674      -3.77972324      46.88285753        1
H       90.87900490      -2.90760789      46.56354433        1
H       92.02908194      -3.70427085      47.14194397        1
19
Properties=species:S:1:pos:R:3:fragment_id:I:1 config_id=dissociation__stress_nitroethane__whole_environment__50A molecule_id=stress_nitroethane regime=whole_environment n_solute_atoms=10 pbc="F F F"
C       -1.08655935      -0.26912393       0.19921890        0
C        0.07989359       0.51994263      -0.35712221        0
N        1.35131897      -0.14039219       0.07755178        0
O        1.84023896       0.23136064       1.15159617        0
O        1.81524379      -1.01344334      -0.66633626        0
H       -1.08003052      -1.30191745      -0.16584906        0
H       -1.05995946      -0.30242604       1.29382519        0
H       -2.03250044       0.19100393      -0.10284164        0
H        0.09629761       1.54650252       0.02103456        0
H        0.07605685       0.53849323      -1.45107745        0
O       53.10301158      -2.20297585      27.32522900        1
H       52.87130974      -1.33086050      27.00591580        1
H       54.02138678      -2.12752346      27.58431544        1
O       52.52269134      -3.41733006      23.44609451        2
H       52.72898663      -4.28891549      23.78375252        2
H       53.16413244      -3.27131711      22.75077777        2
O       45.29835070      -2.73935158      25.69884433        3
H       46.00035042      -3.30896943      26.01342935        3
H       44.97849068      -2.29625452      26.48471099        3
19
Properties=species:S:1:pos:R:3:fragment_id:I:1 config_id=dissociation__stress_nitroethane__whole_environment__100A molecule_id=stress_nitroethane regime=whole_environment n_solute_atoms=10 pbc="F F F"
C       -1.08655935      -0.26912393       0.19921890        0
C        0.07989359       0.51994263      -0.35712221        0
N        1.35131897      -0.14039219       0.07755178        0
O        1.84023896       0.23136064       1.15159617        0
O        1.81524379      -1.01344334      -0.66633626        0
H       -1.08003052      -1.30191745      -0.16584906        0
H       -1.05995946      -0.30242604       1.29382519        0
H       -2.03250044       0.19100393      -0.10284164        0
H        0.09629761       1.54650252       0.02103456        0
H        0.07605685       0.53849323      -1.45107745        0
O       97.55450451      -4.04704387      50.19864404        1
H       97.32280267      -3.17492852      49.87933084        1
H       98.47287971      -3.97159148      50.45773048        1
O       96.97418427      -5.26139808      46.31950955        2
H       97.18047956      -6.13298351      46.65716756        2
H       97.61562537      -5.11538513      45.62419281        2
O       89.74984363      -4.58341960      48.57225937        3
H       90.45184335      -5.15303745      48.88684439        3
H       89.42998361      -4.14032254      49.35812603        3
15
Properties=species:S:1:pos:R:3:fragment_id:I:1 config_id=dissociation__stress_pyridine_n_oxide__single_water__50A molecule_id=stress_pyridine_n_oxide regime=single_water n_solute_atoms=12 pbc="F F F"
O       -1.95647405      -1.75183733      -0.27781868        0
N       -1.01686880      -0.91051058      -0.14439874        0
C        0.28807607      -1.32997052       0.04865315        0
C        1.33127939      -0.41682823       0.19688918        0
C        1.05706802       0.94650537       0.15010891        0
C       -0.24889400       1.38600233      -0.04318919        0
C       -1.27152145       0.44938672      -0.18831018        0
H        0.39438266      -2.40352801       0.06945373        0
H        2.34729336      -0.77124109       0.34732618        0
H        1.86327121       1.66838550       0.26459681        0
H       -0.47449544       2.44815541      -0.08138485        0
H       -2.31311697       0.68548043      -0.34192632        0
O      -47.60342952      17.25869609     -14.43427250        1
H      -48.43926605      17.41809489     -14.87268003        1
H      -46.97590714      17.80436965     -14.90828501        1
15
Properties=species:S:1:pos:R:3:fragment_id:I:1 config_id=dissociation__stress_pyridine_n_oxide__single_water__100A molecule_id=stress_pyridine_n_oxide regime=single_water n_solute_atoms=12 pbc="F F F"
O       -1.95647405      -1.75183733      -0.27781868        0
N       -1.01686880      -0.91051058      -0.14439874        0
C        0.28807607      -1.32997052       0.04865315        0
C        1.33127939      -0.41682823       0.19688918        0
C        1.05706802       0.94650537       0.15010891        0
C       -0.24889400       1.38600233      -0.04318919        0
C       -1.27152145       0.44938672      -0.18831018        0
H        0.39438266      -2.40352801       0.06945373        0
H        2.34729336      -0.77124109       0.34732618        0
H        1.86327121       1.66838550       0.26459681        0
H       -0.47449544       2.44815541      -0.08138485        0
H       -2.31311697       0.68548043      -0.34192632        0
O      -92.81569961      33.65047368     -28.14349962        1
H      -93.65153614      33.80987248     -28.58190715        1
H      -92.18817723      34.19614724     -28.61751213        1
21
Properties=species:S:1:pos:R:3:fragment_id:I:1 config_id=dissociation__stress_pyridine_n_oxide__whole_environment__50A molecule_id=stress_pyridine_n_oxide regime=whole_environment n_solute_atoms=12 pbc="F F F"
O       -1.95647405      -1.75183733      -0.27781868        0
N       -1.01686880      -0.91051058      -0.14439874        0
C        0.28807607      -1.32997052       0.04865315        0
C        1.33127939      -0.41682823       0.19688918        0
C        1.05706802       0.94650537       0.15010891        0
C       -0.24889400       1.38600233      -0.04318919        0
C       -1.27152145       0.44938672      -0.18831018        0
H        0.39438266      -2.40352801       0.06945373        0
H        2.34729336      -0.77124109       0.34732618        0
H        1.86327121       1.66838550       0.26459681        0
H       -0.47449544       2.44815541      -0.08138485        0
H       -2.31311697       0.68548043      -0.34192632        0
O      -56.25386286      20.39492392     -17.05724974        1
H      -57.08969939      20.55432272     -17.49565727        1
H      -55.62634048      20.94059748     -17.53126225        1
O      -52.98825267      23.51916378     -14.92362498        2
H      -53.06367243      23.59452944     -15.87486823        2
H      -53.89025736      23.56680399     -14.60684463        2
O      -47.84865802      19.17953560     -13.36734234        3
H      -48.20388115      18.41772733     -13.82526868        3
H      -46.90086035      19.10656646     -13.47953377        3
21
Properties=species:S:1:pos:R:3:fragment_id:I:1 config_id=dissociation__stress_pyridine_n_oxide__whole_environment__100A molecule_id=stress_pyridine_n_oxide regime=whole_environment n_solute_atoms=12 pbc="F F F"
O       -1.95647405      -1.75183733      -0.27781868        0
N       -1.01686880      -0.91051058      -0.14439874        0
C        0.28807607      -1.32997052       0.04865315        0
C        1.33127939      -0.41682823       0.19688918        0
C        1.05706802       0.94650537       0.15010891        0
C       -0.24889400       1.38600233      -0.04318919        0
C       -1.27152145       0.44938672      -0.18831018        0
H        0.39438266      -2.40352801       0.06945373        0
H        2.34729336      -0.77124109       0.34732618        0
H        1.86327121       1.66838550       0.26459681        0
H       -0.47449544       2.44815541      -0.08138485        0
H       -2.31311697       0.68548043      -0.34192632        0
O     -101.48091794      36.79206182     -30.77095995        1
H     -102.31675447      36.95146062     -31.20936748        1
H     -100.85339556      37.33773538     -31.24497246        1
O      -98.21530775      39.91630168     -28.63733519        2
H      -98.29072751      39.99166734     -29.58857844        2
H      -99.11731244      39.96394189     -28.32055484        2
O      -93.07571310      35.57667350     -27.08105255        3
H      -93.43093623      34.81486523     -27.53897889        3
H      -92.12791543      35.50370436     -27.19324398        3
17
Properties=species:S:1:pos:R:3:fragment_id:I:1 config_id=dissociation__dev_amino_alcohol_halogen__single_water__50A molecule_id=dev_amino_alcohol_halogen regime=single_water n_solute_atoms=14 pbc="F F F"
N        1.49465528       0.74755177      -1.11139244        0
C        0.89430077      -0.07623447      -0.04591109        0
C       -0.63922291       0.02999456      -0.11451570        0
O       -1.01898582       1.41545057      -0.09155202        0
C       -1.36202945      -0.77965333       0.96957771        0
F       -1.13004734      -2.10527341       0.75492287        0
Cl      -0.85342699      -0.37868233       2.62840839        0
H        2.51123485       0.72243287      -1.00864730        0
H        1.30458421       0.31783336      -2.01863142        0
H        1.26765359       0.31806584       0.90413225        0
H        1.22266534      -1.11581358      -0.14473078        0
H       -0.96426961      -0.36112130      -1.08706641        0
H       -0.28540415       1.87653331      -0.55266166        0
H       -2.44170778      -0.61108387       0.91806760        0
O      -48.15210985       3.35155763      22.82727789        1
H      -47.58117061       3.11080025      22.09769162        1
H      -48.26893717       4.29745139      22.73857495        1
17
Properties=species:S:1:pos:R:3:fragment_id:I:1 config_id=dissociation__dev_amino_alcohol_halogen__single_water__100A molecule_id=dev_amino_alcohol_halogen regime=single_water n_solute_atoms=14 pbc="F F F"
N        1.49465528       0.74755177      -1.11139244        0
C        0.89430077      -0.07623447      -0.04591109        0
C       -0.63922291       0.02999456      -0.11451570        0
O       -1.01898582       1.41545057      -0.09155202        0
C       -1.36202945      -0.77965333       0.96957771        0
F       -1.13004734      -2.10527341       0.75492287        0
Cl      -0.85342699      -0.37868233       2.62840839        0
H        2.51123485       0.72243287      -1.00864730        0
H        1.30458421       0.31783336      -2.01863142        0
H        1.26765359       0.31806584       0.90413225        0
H        1.22266534      -1.11581358      -0.14473078        0
H       -0.96426961      -0.36112130      -1.08706641        0
H       -0.28540415       1.87653331      -0.55266166        0
H       -2.44170778      -0.61108387       0.91806760        0
O      -93.24495104       6.49017932      44.20426054        1
H      -92.67401180       6.24942194      43.47467427        1
H      -93.36177836       7.43607308      44.11555760        1
26
Properties=species:S:1:pos:R:3:fragment_id:I:1 config_id=dissociation__dev_amino_alcohol_halogen__whole_environment__50A molecule_id=dev_amino_alcohol_halogen regime=whole_environment n_solute_atoms=14 pbc="F F F"
N        1.49465528       0.74755177      -1.11139244        0
C        0.89430077      -0.07623447      -0.04591109        0
C       -0.63922291       0.02999456      -0.11451570        0
O       -1.01898582       1.41545057      -0.09155202        0
C       -1.36202945      -0.77965333       0.96957771        0
F       -1.13004734      -2.10527341       0.75492287        0
Cl      -0.85342699      -0.37868233       2.62840839        0
H        2.51123485       0.72243287      -1.00864730        0
H        1.30458421       0.31783336      -2.01863142        0
H        1.26765359       0.31806584       0.90413225        0
H        1.22266534      -1.11581358      -0.14473078        0
H       -0.96426961      -0.36112130      -1.08706641        0
H       -0.28540415       1.87653331      -0.55266166        0
H       -2.44170778      -0.61108387       0.91806760        0
O      -50.71371595       3.52985450      24.04164824        1
H      -50.14277671       3.28909712      23.31206197        1
H      -50.83054327       4.47574826      23.95294530        1
O      -47.78481248       7.37792156      21.49729436        2
H      -47.68485587       6.60390897      20.94308769        2
H      -48.38722220       7.10222397      22.18818162        2
O      -50.92185368       2.18046237      22.03874467        3
H      -51.86441206       2.23509720      21.88116751        3
H      -50.56940304       2.98997129      21.66900734        3
O      -48.33238414      -1.51896148      23.43796910        4
H      -48.08944574      -2.41129869      23.68484372        4
H      -47.66849400      -1.25728800      22.79999676        4
26
Properties=species:S:1:pos:R:3:fragment_id:I:1 config_id=dissociation__dev_amino_alcohol_halogen__whole_environment__100A molecule_id=dev_amino_alcohol_halogen regime=whole_environment n_solute_atoms=14 pbc="F F F"
N        1.49465528       0.74755177      -1.11139244        0
C        0.89430077      -0.07623447      -0.04591109        0
C       -0.63922291       0.02999456      -0.11451570        0
O       -1.01898582       1.41545057      -0.09155202        0
C       -1.36202945      -0.77965333       0.96957771        0
F       -1.13004734      -2.10527341       0.75492287        0
Cl      -0.85342699      -0.37868233       2.62840839        0
H        2.51123485       0.72243287      -1.00864730        0
H        1.30458421       0.31783336      -2.01863142        0
H        1.26765359       0.31806584       0.90413225        0
H        1.22266534      -1.11581358      -0.14473078        0
H       -0.96426961      -0.36112130      -1.08706641        0
H       -0.28540415       1.87653331      -0.55266166        0
H       -2.44170778      -0.61108387       0.91806760        0
O      -95.88822066       6.67416026      45.45734478        1
H      -95.31728142       6.43340288      44.72775851        1
H      -96.00504798       7.62005402      45.36864184        1
O      -92.95931719      10.52222732      42.91299090        2
H      -92.85936058       9.74821473      42.35878423        2
H      -93.56172691      10.24652973      43.60387816        2
O      -96.09635839       5.32476813      43.45444121        3
H      -97.03891677       5.37940296      43.29686405        3
H      -95.74390775       6.13427705      43.08470388        3
O      -93.50688885       1.62534428      44.85366564        4
H      -93.26395045       0.73300707      45.10054026        4
H      -92.84299871       1.88701776      44.21569330        4
18
Properties=species:S:1:pos:R:3:fragment_id:I:1 config_id=dissociation__dev_aza_aryl_ether__single_water__50A molecule_id=dev_aza_aryl_ether regime=single_water n_solute_atoms=15 pbc="F F F"
C        2.59214423      -0.24633354       0.53336361        0
O        1.73734879       0.70048954      -0.09716949        0
C        0.40998013       0.31713553      -0.10267989        0
N        0.04946168      -0.86248429       0.46072709        0
C       -1.26582245      -1.17510827       0.41994837        0
C       -2.23785548      -0.36817124      -0.15538158        0
C       -1.84132466       0.83721461      -0.72670955        0
C       -0.49727156       1.18446038      -0.69963255        0
F       -0.10305136       2.34311749      -1.24677607        0
H        3.61334740       0.14437649       0.48729584        0
H        2.33294473      -0.37401326       1.59014204        0
H        2.57989658      -1.20630589       0.00556656        0
H       -1.52890315      -2.12510942       0.87793259        0
H       -3.27893738      -0.67244288      -0.15781449        0
H       -2.56195751       1.50317475      -1.18881246        0
O       51.88316054      -1.62137688      15.84594975        1
H       51.40495938      -1.22200204      15.11927567        1
H       51.73787802      -1.02869129      16.58341067        1
18
Properties=species:S:1:pos:R:3:fragment_id:I:1 config_id=dissociation__dev_aza_aryl_ether__single_water__100A molecule_id=dev_aza_aryl_ether regime=single_water n_solute_atoms=15 pbc="F F F"
C        2.59214423      -0.24633354       0.53336361        0
O        1.73734879       0.70048954      -0.09716949        0
C        0.40998013       0.31713553      -0.10267989        0
N        0.04946168      -0.86248429       0.46072709        0
C       -1.26582245      -1.17510827       0.41994837        0
C       -2.23785548      -0.36817124      -0.15538158        0
C       -1.84132466       0.83721461      -0.72670955        0
C       -0.49727156       1.18446038      -0.69963255        0
F       -0.10305136       2.34311749      -1.24677607        0
H        3.61334740       0.14437649       0.48729584        0
H        2.33294473      -0.37401326       1.59014204        0
H        2.57989658      -1.20630589       0.00556656        0
H       -1.52890315      -2.12510942       0.87793259        0
H       -3.27893738      -0.67244288      -0.15781449        0
H       -2.56195751       1.50317475      -1.18881246        0
O       99.68134260      -3.11509597      30.44428152        1
H       99.20314144      -2.71572113      29.71760744        1
H       99.53606008      -2.52241038      31.18174244        1
27
Properties=species:S:1:pos:R:3:fragment_id:I:1 config_id=dissociation__dev_aza_aryl_ether__whole_environment__50A molecule_id=dev_aza_aryl_ether regime=whole_environment n_solute_atoms=15 pbc="F F F"
C        2.59214423      -0.24633354       0.53336361        0
O        1.73734879       0.70048954      -0.09716949        0
C        0.40998013       0.31713553      -0.10267989        0
N        0.04946168      -0.86248429       0.46072709        0
C       -1.26582245      -1.17510827       0.41994837        0
C       -2.23785548      -0.36817124      -0.15538158        0
C       -1.84132466       0.83721461      -0.72670955        0
C       -0.49727156       1.18446038      -0.69963255        0
F       -0.10305136       2.34311749      -1.24677607        0
H        3.61334740       0.14437649       0.48729584        0
H        2.33294473      -0.37401326       1.59014204        0
H        2.57989658      -1.20630589       0.00556656        0
H       -1.52890315      -2.12510942       0.87793259        0
H       -3.27893738      -0.67244288      -0.15781449        0
H       -2.56195751       1.50317475      -1.18881246        0
O       63.05756022      -1.97058293      19.25879071        1
H       62.57935906      -1.57120809      18.53211663        1
H       62.91227770      -1.37789734      19.99625163        1
O       51.86837774      -2.21549981      15.86018926        2
H       51.68913155      -2.31525690      14.92522875        2
H       51.00335891      -2.14938430      16.26466795        2
O       53.12258167      -5.34740669      18.26212978        3
H       53.10687163      -5.02542418      17.36084609        3
H       52.82345622      -6.25441701      18.19819160        3
O       53.80544606       1.56885372      16.92221470        4
H       54.17869042       2.26309363      16.37912038        4
H       53.00203850       1.94838371      17.27819942        4
27
Properties=species:S:1:pos:R:3:fragment_id:I:1 config_id=dissociation__dev_aza_aryl_ether__whole_environment__100A molecule_id=dev_aza_aryl_ether regime=whole_environment n_solute_atoms=15 pbc="F F F"
C        2.59214423      -0.24633354       0.53336361        0
O        1.73734879       0.70048954      -0.09716949        0
C        0.40998013       0.31713553      -0.10267989        0
N        0.04946168      -0.86248429       0.46072709        0
C       -1.26582245      -1.17510827       0.41994837        0
C       -2.23785548      -0.36817124      -0.15538158        0
C       -1.84132466       0.83721461      -0.72670955        0
C       -0.49727156       1.18446038      -0.69963255        0
F       -0.10305136       2.34311749      -1.24677607        0
H        3.61334740       0.14437649       0.48729584        0
H        2.33294473      -0.37401326       1.59014204        0
H        2.57989658      -1.20630589       0.00556656        0
H       -1.52890315      -2.12510942       0.87793259        0
H       -3.27893738      -0.67244288      -0.15781449        0
H       -2.56195751       1.50317475      -1.18881246        0
O      110.86616118      -3.46462762      33.86030458        1
H      110.38796002      -3.06525278      33.13363050        1
H      110.72087866      -2.87194203      34.59776550        1
O       99.67697870      -3.70954450      30.46170313        2
H       99.49773251      -3.80930159      29.52674262        2
H       98.81195987      -3.64342899      30.86618182        2
O      100.93118263      -6.84145138      32.86364365        3
H      100.91547259      -6.51946887      31.96235996        3
H      100.63205718      -7.74846170      32.79970547        3
O      101.61404702       0.07480903      31.52372857        4
H      101.98729138       0.76904894      30.98063425        4
H      100.81063946       0.45433902      31.87971329        4
13
Properties=species:S:1:pos:R:3:fragment_id:I:1 config_id=dissociation__dev_cyano_ether__single_water__50A molecule_id=dev_cyano_ether regime=single_water n_solute_atoms=10 pbc="F F F"
C        1.39440452      -0.13917142      -0.05080464        0
O        0.25153848      -0.58043341      -0.77456353        0
C       -0.96855157      -0.41478807      -0.03785258        0
C       -1.42535856       0.98479894       0.00239506        0
N       -1.78662997       2.08728787       0.06006740        0
H        1.49470598      -0.69729912       0.88504338        0
H        2.28010244      -0.32790339      -0.66359850        0
H        1.33849076       0.93399617       0.15319623        0
H       -0.85295447      -0.82501094       0.97172148        0
H       -1.72574761      -1.02147663      -0.54560430        0
O      -50.68120950       6.13547767     -10.88973554        1
H      -50.28853521       5.59031716     -11.57152639        1
H      -51.61387858       6.15339981     -11.10430259        1
13
Properties=species:S:1:pos:R:3:fragment_id:I:1 config_id=dissociation__dev_cyano_ether__single_water__100A molecule_id=dev_cyano_ether regime=single_water n_solute_atoms=10 pbc="F F F"
C        1.39440452      -0.13917142      -0.05080464        0
O        0.25153848      -0.58043341      -0.77456353        0
C       -0.96855157      -0.41478807      -0.03785258        0
C       -1.42535856       0.98479894       0.00239506        0
N       -1.78662997       2.08728787       0.06006740        0
H        1.49470598      -0.69729912       0.88504338        0
H        2.28010244      -0.32790339      -0.66359850        0
H        1.33849076       0.93399617       0.15319623        0
H       -0.85295447      -0.82501094       0.97172148        0
H       -1.72574761      -1.02147663      -0.54560430        0
O      -99.26103229      12.01656103     -21.32795175        1
H      -98.86835800      11.47140052     -22.00974260        1
H     -100.19370137      12.03448317     -21.54251880        1
22
Properties=species:S:1:pos:R:3:fragment_id:I:1 config_id=dissociation__dev_cyano_ether__whole_environment__50A molecule_id=dev_cyano_ether regime=whole_environment n_solute_atoms=10 pbc="F F F"
C        1.39440452      -0.13917142      -0.05080464        0
O        0.25153848      -0.58043341      -0.77456353        0
C       -0.96855157      -0.41478807      -0.03785258        0
C       -1.42535856       0.98479894       0.00239506        0
N       -1.78662997       2.08728787       0.06006740        0
H        1.49470598      -0.69729912       0.88504338        0
H        2.28010244      -0.32790339      -0.66359850        0
H        1.33849076       0.93399617       0.15319623        0
H       -0.85295447      -0.82501094       0.97172148        0
H       -1.72574761      -1.02147663      -0.54560430        0
O      -59.55643121       7.20991384     -12.79673062        1
H      -59.16375692       6.66475333     -13.47852147        1
H      -60.48910029       7.22783598     -13.01129767        1
O      -50.85132669       6.29571955     -12.99622477        2
H      -50.89587956       7.25040462     -12.94308995        2
H      -49.96127913       6.08109409     -12.71697023        2
O      -59.53521729       5.71747050     -11.08911406        3
H      -59.05864427       6.52920647     -11.26288030        3
H      -60.12043352       5.93347565     -10.36310058        3
O      -58.78900840      11.29827611     -12.18155993        4
H      -58.74075987      10.34597091     -12.26533769        4
H      -58.99721838      11.60653723     -13.06352112        4
22
Properties=species:S:1:pos:R:3:fragment_id:I:1 config_id=dissociation__dev_cyano_ether__whole_environment__100A molecule_id=dev_cyano_ether regime=whole_environment n_solute_atoms=10 pbc="F F F"
C        1.39440452      -0.13917142      -0.05080464        0
O        0.25153848      -0.58043341      -0.77456353        0
C       -0.96855157      -0.41478807      -0.03785258        0
C       -1.42535856       0.98479894       0.00239506        0
N       -1.78662997       2.08728787       0.06006740        0
H        1.49470598      -0.69729912       0.88504338        0
H        2.28010244      -0.32790339      -0.66359850        0
H        1.33849076       0.93399617       0.15319623        0
H       -0.85295447      -0.82501094       0.97172148        0
H       -1.72574761      -1.02147663      -0.54560430        0
O     -108.14650575      13.09223827     -23.23714960        1
H     -107.75383146      12.54707776     -23.91894045        1
H     -109.07917483      13.11016041     -23.45171665        1
O      -99.44140123      12.17804398     -23.43664375        2
H      -99.48595410      13.13272905     -23.38350893        2
H      -98.55135367      11.96341852     -23.15738921        2
O     -108.12529183      11.59979493     -21.52953304        3
H     -107.64871881      12.41153090     -21.70329928        3
H     -108.71050806      11.81580008     -20.80351956        3
O     -107.37908294      17.18060054     -22.62197891        4
H     -107.33083441      16.22829534     -22.70575667        4
H     -107.58729292      17.48886166     -23.50394010        4
20
Properties=species:S:1:pos:R:3:fragment_id:I:1 config_id=dissociation__dev_cyclic_carbamate__single_water__50A molecule_id=dev_cyclic_carbamate regime=single_water n_solute_atoms=17 pbc="F F F"
O       -0.57471414       2.40023610       0.19585107        0
C       -0.04507130       1.30294096       0.02287873        0
N       -0.73175591       0.09916206       0.13913133        0
C       -2.15969347       0.09408374       0.39135598        0
C       -0.10344363      -1.15532992      -0.25924123        0
C        1.40594472      -1.13799148      -0.04539797        0
O        1.96788604      -0.04492637      -0.77051659        0
C        1.46553110       1.18739759      -0.26976822        0
H       -2.67738095      -0.16687586      -0.53629823        0
H       -2.38288731      -0.65268908       1.15858520        0
H       -2.51343206       1.07042029       0.73243729        0
H       -0.33216022      -1.29598800      -1.32184946        0
H       -0.55057164      -1.97529734       0.31223619        0
H        1.66404610      -1.04622209       1.01640490        0
H        1.85174090      -2.06253895      -0.42474706        0
H        1.99606398       1.42244096       0.66050978        0
H        1.71989778       1.96117740      -1.00157173        0
O      -52.63872626       4.54516390       7.01447847        1
H      -52.08934823       4.53416754       6.23070893        1
H      -52.62309205       3.64201647       7.33119935        1
20
Properties=species:S:1:pos:R:3:fragment_id:I:1 config_id=dissociation__dev_cyclic_carbamate__single_water__100A molecule_id=dev_cyclic_carbamate regime=single_water n_solute_atoms=17 pbc="F F F"
O       -0.57471414       2.40023610       0.19585107        0
C       -0.04507130       1.30294096       0.02287873        0
N       -0.73175591       0.09916206       0.13913133        0
C       -2.15969347       0.09408374       0.39135598        0
C       -0.10344363      -1.15532992      -0.25924123        0
C        1.40594472      -1.13799148      -0.04539797        0
O        1.96788604      -0.04492637      -0.77051659        0
C        1.46553110       1.18739759      -0.26976822        0
H       -2.67738095      -0.16687586      -0.53629823        0
H       -2.38288731      -0.65268908       1.15858520        0
H       -2.51343206       1.07042029       0.73243729        0
H       -0.33216022      -1.29598800      -1.32184946        0
H       -0.55057164      -1.97529734       0.31223619        0
H        1.66404610      -1.04622209       1.01640490        0
H        1.85174090      -2.06253895      -0.42474706        0
H        1.99606398       1.42244096       0.66050978        0
H        1.71989778       1.96117740      -1.00157173        0
O     -102.02920499       8.80985335      13.59610524        1
H     -101.47982696       8.79885699      12.81233570        1
H     -102.01357078       7.90670592      13.91282612        1
29
Properties=species:S:1:pos:R:3:fragment_id:I:1 config_id=dissociation__dev_cyclic_carbamate__whole_environment__50A molecule_id=dev_cyclic_carbamate regime=whole_environment n_solute_atoms=17 pbc="F F F"
O       -0.57471414       2.40023610       0.19585107        0
C       -0.04507130       1.30294096       0.02287873        0
N       -0.73175591       0.09916206       0.13913133        0
C       -2.15969347       0.09408374       0.39135598        0
C       -0.10344363      -1.15532992      -0.25924123        0
C        1.40594472      -1.13799148      -0.04539797        0
O        1.96788604      -0.04492637      -0.77051659        0
C        1.46553110       1.18739759      -0.26976822        0
H       -2.67738095      -0.16687586      -0.53629823        0
H       -2.38288731      -0.65268908       1.15858520        0
H       -2.51343206       1.07042029       0.73243729        0
H       -0.33216022      -1.29598800      -1.32184946        0
H       -0.55057164      -1.97529734       0.31223619        0
H        1.66404610      -1.04622209       1.01640490        0
H        1.85174090      -2.06253895      -0.42474706        0
H        1.99606398       1.42244096       0.66050978        0
H        1.71989778       1.96117740      -1.00157173        0
O      -62.67576430       5.41182588       8.35198400        1
H      -62.12638627       5.40082952       7.56821446        1
H      -62.66013009       4.50867845       8.66870488        1
O      -53.50759069       8.74936867       6.40925497        2
H      -53.61108466       8.03497152       5.78063938        2
H      -54.39782175       9.06708003       6.56018538        2
O      -58.97177535       9.61649718       6.85172329        3
H      -59.27378076       9.54925525       7.75753955        3
H      -58.09100842       9.98519173       6.91914574        3
O      -53.03236698       5.00951315       5.84891631        4
H      -53.35422597       5.50283577       6.60341709        4
H      -52.08476863       4.96617677       5.97702235        4
29
Properties=species:S:1:pos:R:3:fragment_id:I:1 config_id=dissociation__dev_cyclic_carbamate__whole_environment__100A molecule_id=dev_cyclic_carbamate regime=whole_environment n_solute_atoms=17 pbc="F F F"
O       -0.57471414       2.40023610       0.19585107        0
C       -0.04507130       1.30294096       0.02287873        0
N       -0.73175591       0.09916206       0.13913133        0
C       -2.15969347       0.09408374       0.39135598        0
C       -0.10344363      -1.15532992      -0.25924123        0
C        1.40594472      -1.13799148      -0.04539797        0
O        1.96788604      -0.04492637      -0.77051659        0
C        1.46553110       1.18739759      -0.26976822        0
H       -2.67738095      -0.16687586      -0.53629823        0
H       -2.38288731      -0.65268908       1.15858520        0
H       -2.51343206       1.07042029       0.73243729        0
H       -0.33216022      -1.29598800      -1.32184946        0
H       -0.55057164      -1.97529734       0.31223619        0
H        1.66404610      -1.04622209       1.01640490        0
H        1.85174090      -2.06253895      -0.42474706        0
H        1.99606398       1.42244096       0.66050978        0
H        1.71989778       1.96117740      -1.00157173        0
O     -112.06677121       9.67656094      14.93368115        1
H     -111.51739318       9.66556458      14.14991161        1
H     -112.05113700       8.77341351      15.25040203        1
O     -102.89859760      13.01410373      12.99095212        2
H     -103.00209157      12.29970658      12.36233653        2
H     -103.78882866      13.33181509      13.14188253        2
O     -108.36278226      13.88123224      13.43342044        3
H     -108.66478767      13.81399031      14.33923670        3
H     -107.48201533      14.24992679      13.50084289        3
O     -102.42337389       9.27424821      12.43061346        4
H     -102.74523288       9.76757083      13.18511424        4
H     -101.47577554       9.23091183      12.55871950        4
16
Properties=species:S:1:pos:R:3:fragment_id:I:1 config_id=dissociation__dev_hydroxy_nitrile__single_water__50A molecule_id=dev_hydroxy_nitrile regime=single_water n_solute_atoms=13 pbc="F F F"
N        3.28035635      -0.66169080       0.35314983        0
C        2.15831027      -0.73385542       0.06447429        0
C        0.73243394      -0.86196935      -0.26978201        0
C       -0.04632014       0.37893890       0.17338856        0
O        0.19623331       1.43984200      -0.75090623        0
C       -1.54558892       0.10702480       0.19511285        0
H        0.62677969      -1.01361408      -1.35035003        0
H        0.33971610      -1.75328585       0.23333398        0
H        0.27967031       0.71139361       1.16624298        0
H       -0.22457950       2.24463236      -0.39931858        0
H       -1.90667054      -0.17739728      -0.79946917        0
H       -2.09475082       1.01022290       0.48249281        0
H       -1.79559003      -0.69024181       0.90163072        0
O       13.71136367      46.82473371     -20.11585319        1
H       13.62279895      46.43864429     -19.24446172        1
H       13.12403182      46.30848350     -20.66790288        1
16
Properties=species:S:1:pos:R:3:fragment_id:I:1 config_id=dissociation__dev_hydroxy_nitrile__single_water__100A molecule_id=dev_hydroxy_nitrile regime=single_water n_solute_atoms=13 pbc="F F F"
N        3.28035635      -0.66169080       0.35314983        0
C        2.15831027      -0.73385542       0.06447429        0
C        0.73243394      -0.86196935      -0.26978201        0
C       -0.04632014       0.37893890       0.17338856        0
O        0.19623331       1.43984200      -0.75090623        0
C       -1.54558892       0.10702480       0.19511285        0
H        0.62677969      -1.01361408      -1.35035003        0
H        0.33971610      -1.75328585       0.23333398        0
H        0.27967031       0.71139361       1.16624298        0
H       -0.22457950       2.24463236      -0.39931858        0
H       -1.90667054      -0.17739728      -0.79946917        0
H       -2.09475082       1.01022290       0.48249281        0
H       -1.79559003      -0.69024181       0.90163072        0
O       26.70280070      91.19089555     -39.17550666        1
H       26.61423598      90.80480613     -38.30411519        1
H       26.11546885      90.67464534     -39.72755635        1
25
Properties=species:S:1:pos:R:3:fragment_id:I:1 config_id=dissociation__dev_hydroxy_nitrile__whole_environment__50A molecule_id=dev_hydroxy_nitrile regime=whole_environment n_solute_atoms=13 pbc="F F F"
N        3.28035635      -0.66169080       0.35314983        0
C        2.15831027      -0.73385542       0.06447429        0
C        0.73243394      -0.86196935      -0.26978201        0
C       -0.04632014       0.37893890       0.17338856        0
O        0.19623331       1.43984200      -0.75090623        0
C       -1.54558892       0.10702480       0.19511285        0
H        0.62677969      -1.01361408      -1.35035003        0
H        0.33971610      -1.75328585       0.23333398        0
H        0.27967031       0.71139361       1.16624298        0
H       -0.22457950       2.24463236      -0.39931858        0
H       -1.90667054      -0.17739728      -0.79946917        0
H       -2.09475082       1.01022290       0.48249281        0
H       -1.79559003      -0.69024181       0.90163072        0
O       15.30579485      52.26976582     -22.45503289        1
H       15.21723013      51.88367640     -21.58364142        1
H       14.71846300      51.75351561     -23.00708258        1
O       15.94440712      44.32361461     -22.52424957        2
H       16.83994253      44.15561713     -22.81754978        2
H       16.02964134      44.51457489     -21.59017188        2
O       19.95032443      47.51311305     -20.67774074        3
H       19.26479813      47.21381810     -21.27499117        3
H       19.47554706      47.87437815     -19.92920497        3
O       12.93211251      52.25365831     -18.38978631        4
H       13.29908354      51.83203860     -17.61274004        4
H       13.14237565      51.65723578     -19.10832748        4
25
Properties=species:S:1:pos:R:3:fragment_id:I:1 config_id=dissociation__dev_hydroxy_nitrile__whole_environment__100A molecule_id=dev_hydroxy_nitrile regime=whole_environment n_solute_atoms=13 pbc="F F F"
N        3.28035635      -0.66169080       0.35314983        0
C        2.15831027      -0.73385542       0.06447429        0
C        0.73243394      -0.86196935      -0.26978201        0
C       -0.04632014       0.37893890       0.17338856        0
O        0.19623331       1.43984200      -0.75090623        0
C       -1.54558892       0.10702480       0.19511285        0
H        0.62677969      -1.01361408      -1.35035003        0
H        0.33971610      -1.75328585       0.23333398        0
H        0.27967031       0.71139361       1.16624298        0
H       -0.22457950       2.24463236      -0.39931858        0
H       -1.90667054      -0.17739728      -0.79946917        0
H       -2.09475082       1.01022290       0.48249281        0
H       -1.79559003      -0.69024181       0.90163072        0
O       28.32165489      96.71933302     -41.55051720        1
H       28.23309017      96.33324360     -40.67912573        1
H       27.73432304      96.20308281     -42.10256689        1
O       28.96026716      88.77318181     -41.61973388        2
H       29.85580257      88.60518433     -41.91303409        2
H       29.04550138      88.96414209     -40.68565619        2
O       32.96618447      91.96268025     -39.77322505        3
H       32.28065817      91.66338530     -40.37047548        3
H       32.49140710      92.32394535     -39.02468928        3
O       25.94797255      96.70322551     -37.48527062        4
H       26.31494358      96.28160580     -36.70822435        4
H       26.15823569      96.10680298     -38.20381179        4
17
Properties=species:S:1:pos:R:3:fragment_id:I:1 config_id=dissociation__dev_oxazolidinone__single_water__50A molecule_id=dev_oxazolidinone regime=single_water n_solute_atoms=14 pbc="F F F"
O        0.50638663       2.44082653       0.27923604        0
C       -0.08288586       1.37443485       0.23426948        0
O       -1.43058537       1.24031979       0.43278175        0
C       -1.74229499      -0.15814841       0.47378631        0
C       -0.55465052      -0.84714553      -0.15268141        0
N        0.46215943       0.14645844      -0.03481290        0
C        1.83856886      -0.09444791      -0.38724547        0
H       -2.66989912      -0.35265816      -0.07213634        0
H       -1.87995160      -0.44714175       1.52116194        0
H       -0.72070202      -1.05016501      -1.21566085        0
H       -0.27889779      -1.77122217       0.36228529        0
H        2.44605030       0.79416354      -0.19674121        0
H        1.89086584      -0.34400698      -1.45059797        0
H        2.21583621      -0.93126723       0.20635533        0
O       13.63493424      49.38875655      11.54117849        1
H       13.33630279      49.73268343      12.38306055        1
H       14.51501472      49.05569425      11.71656295        1
17
Properties=species:S:1:pos:R:3:fragment_id:I:1 config_id=dissociation__dev_oxazolidinone__single_water__100A molecule_id=dev_oxazolidinone regime=single_water n_solute_atoms=14 pbc="F F F"
O        0.50638663       2.44082653       0.27923604        0
C       -0.08288586       1.37443485       0.23426948        0
O       -1.43058537       1.24031979       0.43278175        0
C       -1.74229499      -0.15814841       0.47378631        0
C       -0.55465052      -0.84714553      -0.15268141        0
N        0.46215943       0.14645844      -0.03481290        0
C        1.83856886      -0.09444791      -0.38724547        0
H       -2.66989912      -0.35265816      -0.07213634        0
H       -1.87995160      -0.44714175       1.52116194        0
H       -0.72070202      -1.05016501      -1.21566085        0
H       -0.27889779      -1.77122217       0.36228529        0
H        2.44605030       0.79416354      -0.19674121        0
H        1.89086584      -0.34400698      -1.45059797        0
H        2.21583621      -0.93126723       0.20635533        0
O       26.61746597      96.41436645      22.53013621        1
H       26.31883452      96.75829333      23.37201827        1
H       27.49754645      96.08130415      22.70552067        1
26
Properties=species:S:1:pos:R:3:fragment_id:I:1 config_id=dissociation__dev_oxazolidinone__whole_environment__50A molecule_id=dev_oxazolidinone regime=whole_environment n_solute_atoms=14 pbc="F F F"
O        0.50638663       2.44082653       0.27923604        0
C       -0.08288586       1.37443485       0.23426948        0
O       -1.43058537       1.24031979       0.43278175        0
C       -1.74229499      -0.15814841       0.47378631        0
C       -0.55465052      -0.84714553      -0.15268141        0
N        0.46215943       0.14645844      -0.03481290        0
C        1.83856886      -0.09444791      -0.38724547        0
H       -2.66989912      -0.35265816      -0.07213634        0
H       -1.87995160      -0.44714175       1.52116194        0
H       -0.72070202      -1.05016501      -1.21566085        0
H       -0.27889779      -1.77122217       0.36228529        0
H        2.44605030       0.79416354      -0.19674121        0
H        1.89086584      -0.34400698      -1.45059797        0
H        2.21583621      -0.93126723       0.20635533        0
O       14.96873692      54.22008572      12.67016485        1
H       14.67010547      54.56401260      13.51204691        1
H       15.84881740      53.88702342      12.84554931        1
O        9.31330835      49.86111206      13.46083875        2
H        9.82565828      50.44848060      12.90520615        2
H        9.82080887      49.79230993      14.26950514        2
O       18.97936705      49.73311135       9.67156263        3
H       18.83173870      49.46038093       8.76599329        3
H       18.10085972      49.84853432      10.03368728        3
O       10.07214537      52.00964075      11.81537574        4
H       10.15352142      51.88895851      12.76144423        4
H       10.82792156      52.54604010      11.57598085        4
26
Properties=species:S:1:pos:R:3:fragment_id:I:1 config_id=dissociation__dev_oxazolidinone__whole_environment__100A molecule_id=dev_oxazolidinone regime=whole_environment n_solute_atoms=14 pbc="F F F"
O        0.50638663       2.44082653       0.27923604        0
C       -0.08288586       1.37443485       0.23426948        0
O       -1.43058537       1.24031979       0.43278175        0
C       -1.74229499      -0.15814841       0.47378631        0
C       -0.55465052      -0.84714553      -0.15268141        0
N        0.46215943       0.14645844      -0.03481290        0
C        1.83856886      -0.09444791      -0.38724547        0
H       -2.66989912      -0.35265816      -0.07213634        0
H       -1.87995160      -0.44714175       1.52116194        0
H       -0.72070202      -1.05016501      -1.21566085        0
H       -0.27889779      -1.77122217       0.36228529        0
H        2.44605030       0.79416354      -0.19674121        0
H        1.89086584      -0.34400698      -1.45059797        0
H        2.21583621      -0.93126723       0.20635533        0
O       27.97854247     101.34448750      23.68220828        1
H       27.67991102     101.68841438      24.52409034        1
H       28.85862295     101.01142520      23.85759274        1
O       22.32311390      96.98551384      24.47288218        2
H       22.83546383      97.57288238      23.91724958        2
H       22.83061442      96.91671171      25.28154857        2
O       31.98917260      96.85751313      20.68360606        3
H       31.84154425      96.58478271      19.77803672        3
H       31.11066527      96.97293610      21.04573071        3
O       23.08195092      99.13404253      22.82741917        4
H       23.16332697      99.01336029      23.77348766        4
H       23.83772711      99.67044188      22.58802428        4
19
Properties=species:S:1:pos:R:3:fragment_id:I:1 config_id=dissociation__dev_sulfonyl_amine__single_water__50A molecule_id=dev_sulfonyl_amine regime=single_water n_solute_atoms=16 pbc="F F F"
C        1.83978143       0.09966068      -0.46221228        0
S        0.65317042       1.16079694       0.34017911        0
O        1.06226299       1.31254295       1.72000783        0
O        0.44743642       2.31249524      -0.51162806        0
N       -0.75720751       0.22422181       0.30908422        0
C       -1.40865520       0.02234836      -0.99526520        0
C       -0.80727966      -0.95572635       1.18753706        0
H        1.50982827      -0.10617647      -1.48141519        0
H        1.94913834      -0.82067113       0.11315114        0
H        2.79468357       0.62998974      -0.48766162        0
H       -0.86921212      -0.72038359      -1.58956927        0
H       -2.43446094      -0.33035689      -0.84625723        0
H       -1.47431259       0.95924531      -1.55485437        0
H       -1.84363083      -1.29127818       1.29827264        0
H       -0.44242102      -0.71901369       2.19056814        0
H       -0.21912157      -1.77769474       0.77006307        0
O       26.53347611      28.68976932      35.98984853        1
H       25.64033354      28.58740327      35.66113985        1
H       26.89375027      27.80296655      35.98594859        1
19
Properties=species:S:1:pos:R:3:fragment_id:I:1 config_id=dissociation__dev_sulfonyl_amine__single_water__100A molecule_id=dev_sulfonyl_amine regime=single_water n_solute_atoms=16 pbc="F F F"
C        1.83978143       0.09966068      -0.46221228        0
S        0.65317042       1.16079694       0.34017911        0
O        1.06226299       1.31254295       1.72000783        0
O        0.44743642       2.31249524      -0.51162806        0
N       -0.75720751       0.22422181       0.30908422        0
C       -1.40865520       0.02234836      -0.99526520        0
C       -0.80727966      -0.95572635       1.18753706        0
H        1.50982827      -0.10617647      -1.48141519        0
H        1.94913834      -0.82067113       0.11315114        0
H        2.79468357       0.62998974      -0.48766162        0
H       -0.86921212      -0.72038359      -1.58956927        0
H       -2.43446094      -0.33035689      -0.84625723        0
H       -1.47431259       0.95924531      -1.55485437        0
H       -1.84363083      -1.29127818       1.29827264        0
H       -0.44242102      -0.71901369       2.19056814        0
H       -0.21912157      -1.77769474       0.77006307        0
O       51.50616272      55.69190861      69.86265149        1
H       50.61302015      55.58954256      69.53394281        1
H       51.86643688      54.80510584      69.85875155        1
28
Properties=species:S:1:pos:R:3:fragment_id:I:1 config_id=dissociation__dev_sulfonyl_amine__whole_environment__50A molecule_id=dev_sulfonyl_amine regime=whole_environment n_solute_atoms=16 pbc="F F F"
C        1.83978143       0.09966068      -0.46221228        0
S        0.65317042       1.16079694       0.34017911        0
O        1.06226299       1.31254295       1.72000783        0
O        0.44743642       2.31249524      -0.51162806        0
N       -0.75720751       0.22422181       0.30908422        0
C       -1.40865520       0.02234836      -0.99526520        0
C       -0.80727966      -0.95572635       1.18753706        0
H        1.50982827      -0.10617647      -1.48141519        0
H        1.94913834      -0.82067113       0.11315114        0
H        2.79468357       0.62998974      -0.48766162        0
H       -0.86921212      -0.72038359      -1.58956927        0
H       -2.43446094      -0.33035689      -0.84625723        0
H       -1.47431259       0.95924531      -1.55485437        0
H       -1.84363083      -1.29127818       1.29827264        0
H       -0.44242102      -0.71901369       2.19056814        0
H       -0.21912157      -1.77769474       0.77006307        0
O       29.40572182      31.79543351      39.88574544        1
H       28.51257925      31.69306746      39.55703676        1
H       29.76599598      30.90863074      39.88184550        1
O       23.55447088      25.56292691      39.73828586        2
H       24.03985728      25.57534550      38.91337516        2
H       23.80369159      24.73598947      40.15095441        2
O       32.19895075      28.95652468      33.43769769        3
H       31.63001659      28.40709068      32.89856130        3
H       31.77159053      28.97693757      34.29395606        3
O       28.59639020      31.75683814      37.06690194        4
H       29.07757848      32.56524082      37.24346578        4
H       29.24400442      31.17366538      36.67100145        4
28
Properties=species:S:1:pos:R:3:fragment_id:I:1 config_id=dissociation__dev_sulfonyl_amine__whole_environment__100A molecule_id=dev_sulfonyl_amine regime=whole_environment n_solute_atoms=16 pbc="F F F"
C        1.83978143       0.09966068      -0.46221228        0
S        0.65317042       1.16079694       0.34017911        0
O        1.06226299       1.31254295       1.72000783        0
O        0.44743642       2.31249524      -0.51162806        0
N       -0.75720751       0.22422181       0.30908422        0
C       -1.40865520       0.02234836      -0.99526520        0
C       -0.80727966      -0.95572635       1.18753706        0
H        1.50982827      -0.10617647      -1.48141519        0
H        1.94913834      -0.82067113       0.11315114        0
H        2.79468357       0.62998974      -0.48766162        0
H       -0.86921212      -0.72038359      -1.58956927        0
H       -2.43446094      -0.33035689      -0.84625723        0
H       -1.47431259       0.95924531      -1.55485437        0
H       -1.84363083      -1.29127818       1.29827264        0
H       -0.44242102      -0.71901369       2.19056814        0
H       -0.21912157      -1.77769474       0.77006307        0
O       54.43412932      58.85782196      73.83412789        1
H       53.54098675      58.75545591      73.50541921        1
H       54.79440348      57.97101919      73.83022795        1
O       48.58287838      52.62531536      73.68666831        2
H       49.06826478      52.63773395      72.86175761        2
H       48.83209909      51.79837792      74.09933686        2
O       57.22735825      56.01891313      67.38608014        3
H       56.65842409      55.46947913      66.84694375        3
H       56.79999803      56.03932602      68.24233851        3
O       53.62479770      58.81922659      71.01528439        4
H       54.10598598      59.62762927      71.19184823        4
H       54.27241192      58.23605383      70.61938390        4
19
Properties=species:S:1:pos:R:3:fragment_id:I:1 config_id=dissociation__dev_thio_amide__single_water__50A molecule_id=dev_thio_amide regime=single_water n_solute_atoms=16 pbc="F F F"
C        3.07242893      -0.04607722       0.21207785        0
S        1.55244152       0.92717312       0.22612008        0
C        0.37063560      -0.37246634       0.10514042        0
O        0.74324158      -1.53731943       0.01777185        0
N       -0.96733131       0.00854592       0.09242498        0
C       -1.97112191      -1.01084769      -0.15949407        0
C       -1.46385474       1.37423759       0.20520316        0
H        3.16038886      -0.61215783      -0.71933747        0
H        3.09920164      -0.73326379       1.06224638        0
H        3.93031634       0.62761666       0.28725278        0
H       -1.53851476      -2.00882037      -0.26546965        0
H       -2.50156817      -0.75899093      -1.08287429        0
H       -2.67883203      -1.02250788       0.67486374        0
H       -0.81565618       2.00014868       0.82114335        0
H       -2.45661706       1.36526007       0.66592107        0
H       -1.53515830       1.79946944      -0.80015130        0
O       23.45089968     -46.55410463      -2.29186221        1
H       23.70023125     -46.22384083      -1.42873334        1
H       22.53156752     -46.80326425      -2.19710095        1
19
Properties=species:S:1:pos:R:3:fragment_id:I:1 config_id=dissociation__dev_thio_amide__single_water__100A molecule_id=dev_thio_amide regime=single_water n_solute_atoms=16 pbc="F F F"
C        3.07242893      -0.04607722       0.21207785        0
S        1.55244152       0.92717312       0.22612008        0
C        0.37063560      -0.37246634       0.10514042        0
O        0.74324158      -1.53731943       0.01777185        0
N       -0.96733131       0.00854592       0.09242498        0
C       -1.97112191      -1.01084769      -0.15949407        0
C       -1.46385474       1.37423759       0.20520316        0
H        3.16038886      -0.61215783      -0.71933747        0
H        3.09920164      -0.73326379       1.06224638        0
H        3.93031634       0.62761666       0.28725278        0
H       -1.53851476      -2.00882037      -0.26546965        0
H       -2.50156817      -0.75899093      -1.08287429        0
H       -2.67883203      -1.02250788       0.67486374        0
H       -0.81565618       2.00014868       0.82114335        0
H       -2.45661706       1.36526007       0.66592107        0
H       -1.53515830       1.79946944      -0.80015130        0
O       45.93126713     -91.18153441      -4.56932811        1
H       46.18059870     -90.85127061      -3.70619924        1
H       45.01193497     -91.43069403      -4.47456685        1
28
Properties=species:S:1:pos:R:3:fragment_id:I:1 config_id=dissociation__dev_thio_amide__whole_environment__50A molecule_id=dev_thio_amide regime=whole_environment n_solute_atoms=16 pbc="F F F"
C        3.07242893      -0.04607722       0.21207785        0
S        1.55244152       0.92717312       0.22612008        0
C        0.37063560      -0.37246634       0.10514042        0
O        0.74324158      -1.53731943       0.01777185        0
N       -0.96733131       0.00854592       0.09242498        0
C       -1.97112191      -1.01084769      -0.15949407        0
C       -1.46385474       1.37423759       0.20520316        0
H        3.16038886      -0.61215783      -0.71933747        0
H        3.09920164      -0.73326379       1.06224638        0
H        3.93031634       0.62761666       0.28725278        0
H       -1.53851476      -2.00882037      -0.26546965        0
H       -2.50156817      -0.75899093      -1.08287429        0
H       -2.67883203      -1.02250788       0.67486374        0
H       -0.81565618       2.00014868       0.82114335        0
H       -2.45661706       1.36526007       0.66592107        0
H       -1.53515830       1.79946944      -0.80015130        0
O       27.41018279     -54.41396855      -2.69297364        1
H       27.65951436     -54.08370475      -1.82984477        1
H       26.49085063     -54.66312817      -2.59821238        1
O       21.47068923     -54.29090959      -3.53082216        2
H       22.16824143     -54.00088509      -2.94299688        2
H       21.19562587     -53.49588852      -3.98745494        2
O       21.12263570     -47.68891147      -1.76229857        3
H       21.57414452     -48.43026824      -1.35886113        3
H       21.79659077     -47.01443319      -1.84653313        3
O       27.80841567     -53.46432486      -5.37855092        4
H       27.57387235     -53.88538844      -4.55155229        4
H       28.27966137     -54.13964425      -5.86650896        4
28
Properties=species:S:1:pos:R:3:fragment_id:I:1 config_id=dissociation__dev_thio_amide__whole_environment__100A molecule_id=dev_thio_amide regime=whole_environment n_solute_atoms=16 pbc="F F F"
C        3.07242893      -0.04607722       0.21207785        0
S        1.55244152       0.92717312       0.22612008        0
C        0.37063560      -0.37246634       0.10514042        0
O        0.74324158      -1.53731943       0.01777185        0
N       -0.96733131       0.00854592       0.09242498        0
C       -1.97112191      -1.01084769      -0.15949407        0
C       -1.46385474       1.37423759       0.20520316        0
H        3.16038886      -0.61215783      -0.71933747        0
H        3.09920164      -0.73326379       1.06224638        0
H        3.93031634       0.62761666       0.28725278        0
H       -1.53851476      -2.00882037      -0.26546965        0
H       -2.50156817      -0.75899093      -1.08287429        0
H       -2.67883203      -1.02250788       0.67486374        0
H       -0.81565618       2.00014868       0.82114335        0
H       -2.45661706       1.36526007       0.66592107        0
H       -1.53515830       1.79946944      -0.80015130        0
O       49.92007122     -99.10000260      -4.97343028        1
H       50.16940279     -98.76973880      -4.11030141        1
H       49.00073906     -99.34916222      -4.87866902        1
O       43.98057766     -98.97694364      -5.81127880        2
H       44.67812986     -98.68691914      -5.22345352        2
H       43.70551430     -98.18192257      -6.26791158        2
O       43.63252413     -92.37494552      -4.04275521        3
H       44.08403295     -93.11630229      -3.63931777        3
H       44.30647920     -91.70046724      -4.12698977        3
O       50.31830410     -98.15035891      -7.65900756        4
H       50.08376078     -98.57142249      -6.83200893        4
H       50.78954980     -98.82567830      -8.14696560        4
