28
Properties=species:S:1:pos:R:3:fragment_id:I:1 config_id=prospective__pros_azaaryl_sulfoxide__cluster_3water__compressed molecule_id=pros_azaaryl_sulfoxide smiles=COc1nc(S(=O)C)cc(F)n1 split=prospective chemical_role="diaza aryl ether sulfoxide fluoride" category=cluster_3water motif=compressed regime=compressed conformer_index=0 n_solute_atoms=19 n_waters=3 pbc="F F F"
C        3.17651484       1.35488885       0.39946798        0
O        1.91300562       1.48415014      -0.23962818        0
C        1.13971874       0.34845815      -0.14743627        0
N       -0.04567943       0.43584222      -0.75963935        0
C       -0.82488308      -0.65577074      -0.67645797        0
S       -2.37992174      -0.47230087      -1.54769839        0
O       -3.23271161      -1.62737381      -1.10533843        0
C       -2.96870904       1.00841351      -0.69220220        0
C       -0.47197492      -1.81039939      -0.03218182        0
C        0.76215736      -1.77239215       0.55360410        0
F        1.18670493      -2.86115596       1.21089413        0
N        1.59123028      -0.71762553       0.52010619        0
H        3.77597091       0.56098616      -0.05970864        0
H        3.71627687       2.29733540       0.26472412        0
H        3.06258256       1.18929449       1.47649839        0
H       -2.34912142       1.86674986      -0.96232667        0
H       -3.99739161       1.20170700      -1.00657950        0
H       -2.94781335       0.85219000       0.38930863        0
H       -1.10595590      -2.68299733       0.01716570        0
O       -5.77341778       2.37054203      -0.96942301        1
H       -4.91908686       2.79695149      -0.90215123        1
H       -5.57785508       1.43424360      -0.93292203        1
O       -8.43024389       3.12662847      -1.47465681        2
H       -7.67212398       3.69763405      -1.35040439        2
H       -8.07973883       2.24012753      -1.38808821        2
O      -11.22858364       3.93125261      -1.90884440        3
H      -10.46478542       4.49908119      -1.80679139        3
H      -10.87856108       3.04316017      -1.83807809        3
