23
Properties=species:S:1:pos:R:3:fragment_id:I:1 config_id=nonwater_environment__pros_azaaryl_sulfoxide__nh3__equilibrium_like molecule_id=pros_azaaryl_sulfoxide smiles=COc1nc(S(=O)C)cc(F)n1 chemical_role="diaza aryl ether sulfoxide fluoride" split=prospective_nonwater_environment_transfer regime=equilibrium_like source_regime=equilibrium source_config_id=prospective__pros_azaaryl_sulfoxide__cluster_3water__equilibrium perturbant=NH3 n_solute_atoms=19 n_environment_atoms=4 environment_molecule_count=1 source_water_oxygen_index=19 orientation_candidate_index=0 pbc="F F F"
C        3.17651484       1.35488885       0.39946798        0
O        1.91300562       1.48415014      -0.23962818        0
C        1.13971874       0.34845815      -0.14743627        0
N       -0.04567943       0.43584222      -0.75963935        0
C       -0.82488308      -0.65577074      -0.67645797        0
S       -2.37992174      -0.47230087      -1.54769839        0
O       -3.23271161      -1.62737381      -1.10533843        0
C       -2.96870904       1.00841351      -0.69220220        0
C       -0.47197492      -1.81039939      -0.03218182        0
C        0.76215736      -1.77239215       0.55360410        0
F        1.18670493      -2.86115596       1.21089413        0
N        1.59123028      -0.71762553       0.52010619        0
H        3.77597091       0.56098616      -0.05970864        0
H        3.71627687       2.29733540       0.26472412        0
H        3.06258256       1.18929449       1.47649839        0
H       -2.34912142       1.86674986      -0.96232667        0
H       -3.99739161       1.20170700      -1.00657950        0
H       -2.94781335       0.85219000       0.38930863        0
H       -1.10595590      -2.68299733       0.01716570        0
N        3.45943441      -1.49683897       2.02559942        0
H        3.42712958      -0.77571203       2.74170084        0
H        2.69594449      -2.13668265       2.22944199        0
H        4.31856347      -2.01751593       2.18263871        0
25
Properties=species:S:1:pos:R:3:fragment_id:I:1 config_id=nonwater_environment__pros_azaaryl_sulfoxide__ch3oh__equilibrium_like molecule_id=pros_azaaryl_sulfoxide smiles=COc1nc(S(=O)C)cc(F)n1 chemical_role="diaza aryl ether sulfoxide fluoride" split=prospective_nonwater_environment_transfer regime=equilibrium_like source_regime=equilibrium source_config_id=prospective__pros_azaaryl_sulfoxide__cluster_3water__equilibrium perturbant=CH3OH n_solute_atoms=19 n_environment_atoms=6 environment_molecule_count=1 source_water_oxygen_index=19 orientation_candidate_index=0 pbc="F F F"
C        3.17651484       1.35488885       0.39946798        0
O        1.91300562       1.48415014      -0.23962818        0
C        1.13971874       0.34845815      -0.14743627        0
N       -0.04567943       0.43584222      -0.75963935        0
C       -0.82488308      -0.65577074      -0.67645797        0
S       -2.37992174      -0.47230087      -1.54769839        0
O       -3.23271161      -1.62737381      -1.10533843        0
C       -2.96870904       1.00841351      -0.69220220        0
C       -0.47197492      -1.81039939      -0.03218182        0
C        0.76215736      -1.77239215       0.55360410        0
F        1.18670493      -2.86115596       1.21089413        0
N        1.59123028      -0.71762553       0.52010619        0
H        3.77597091       0.56098616      -0.05970864        0
H        3.71627687       2.29733540       0.26472412        0
H        3.06258256       1.18929449       1.47649839        0
H       -2.34912142       1.86674986      -0.96232667        0
H       -3.99739161       1.20170700      -1.00657950        0
H       -2.94781335       0.85219000       0.38930863        0
H       -1.10595590      -2.68299733       0.01716570        0
C        2.39779305      -2.40664404       2.29004337        0
O        3.45943441      -1.49683897       2.02559942        0
H        2.44914328      -3.16974899       1.51407159        0
H        3.42861624      -0.80889808       2.70874606        0
H        2.50211534      -2.89519660       3.26639320        0
H        1.41417927      -1.92417836       2.23948139        0
25
Properties=species:S:1:pos:R:3:fragment_id:I:1 config_id=nonwater_environment__pros_azaaryl_sulfoxide__ch3cn__equilibrium_like molecule_id=pros_azaaryl_sulfoxide smiles=COc1nc(S(=O)C)cc(F)n1 chemical_role="diaza aryl ether sulfoxide fluoride" split=prospective_nonwater_environment_transfer regime=equilibrium_like source_regime=equilibrium source_config_id=prospective__pros_azaaryl_sulfoxide__cluster_3water__equilibrium perturbant=CH3CN n_solute_atoms=19 n_environment_atoms=6 environment_molecule_count=1 source_water_oxygen_index=19 orientation_candidate_index=0 pbc="F F F"
C        3.17651484       1.35488885       0.39946798        0
O        1.91300562       1.48415014      -0.23962818        0
C        1.13971874       0.34845815      -0.14743627        0
N       -0.04567943       0.43584222      -0.75963935        0
C       -0.82488308      -0.65577074      -0.67645797        0
S       -2.37992174      -0.47230087      -1.54769839        0
O       -3.23271161      -1.62737381      -1.10533843        0
C       -2.96870904       1.00841351      -0.69220220        0
C       -0.47197492      -1.81039939      -0.03218182        0
C        0.76215736      -1.77239215       0.55360410        0
F        1.18670493      -2.86115596       1.21089413        0
N        1.59123028      -0.71762553       0.52010619        0
H        3.77597091       0.56098616      -0.05970864        0
H        3.71627687       2.29733540       0.26472412        0
H        3.06258256       1.18929449       1.47649839        0
H       -2.34912142       1.86674986      -0.96232667        0
H       -3.99739161       1.20170700      -1.00657950        0
H       -2.94781335       0.85219000       0.38930863        0
H       -1.10595590      -2.68299733       0.01716570        0
C        3.37558568       0.37488048       3.88427489        0
C        3.42199729      -0.66114618       2.85546828        0
N        3.45943441      -1.49683897       2.02559942        0
H        2.55209882       0.18206777       4.57437933        0
H        4.31089901       0.38741675       4.44693238        0
H        3.22797458       1.35396194       3.42475110        0
23
Properties=species:S:1:pos:R:3:fragment_id:I:1 config_id=nonwater_environment__pros_azaaryl_sulfoxide__nh3__altered_orientation molecule_id=pros_azaaryl_sulfoxide smiles=COc1nc(S(=O)C)cc(F)n1 chemical_role="diaza aryl ether sulfoxide fluoride" split=prospective_nonwater_environment_transfer regime=altered_orientation source_regime=orientation source_config_id=prospective__pros_azaaryl_sulfoxide__cluster_3water__orientation perturbant=NH3 n_solute_atoms=19 n_environment_atoms=4 environment_molecule_count=1 source_water_oxygen_index=19 orientation_candidate_index=0 pbc="F F F"
C        3.17651484       1.35488885       0.39946798        0
O        1.91300562       1.48415014      -0.23962818        0
C        1.13971874       0.34845815      -0.14743627        0
N       -0.04567943       0.43584222      -0.75963935        0
C       -0.82488308      -0.65577074      -0.67645797        0
S       -2.37992174      -0.47230087      -1.54769839        0
O       -3.23271161      -1.62737381      -1.10533843        0
C       -2.96870904       1.00841351      -0.69220220        0
C       -0.47197492      -1.81039939      -0.03218182        0
C        0.76215736      -1.77239215       0.55360410        0
F        1.18670493      -2.86115596       1.21089413        0
N        1.59123028      -0.71762553       0.52010619        0
H        3.77597091       0.56098616      -0.05970864        0
H        3.71627687       2.29733540       0.26472412        0
H        3.06258256       1.18929449       1.47649839        0
H       -2.34912142       1.86674986      -0.96232667        0
H       -3.99739161       1.20170700      -1.00657950        0
H       -2.94781335       0.85219000       0.38930863        0
H       -1.10595590      -2.68299733       0.01716570        0
N        3.45943441      -1.49683897       2.02559942        0
H        3.66835885      -0.52389659       2.23441180        0
H        4.23467270      -2.04140837       2.39481256        0
H        3.50237011      -1.58776335       1.01379022        0
25
Properties=species:S:1:pos:R:3:fragment_id:I:1 config_id=nonwater_environment__pros_azaaryl_sulfoxide__ch3oh__altered_orientation molecule_id=pros_azaaryl_sulfoxide smiles=COc1nc(S(=O)C)cc(F)n1 chemical_role="diaza aryl ether sulfoxide fluoride" split=prospective_nonwater_environment_transfer regime=altered_orientation source_regime=orientation source_config_id=prospective__pros_azaaryl_sulfoxide__cluster_3water__orientation perturbant=CH3OH n_solute_atoms=19 n_environment_atoms=6 environment_molecule_count=1 source_water_oxygen_index=19 orientation_candidate_index=0 pbc="F F F"
C        3.17651484       1.35488885       0.39946798        0
O        1.91300562       1.48415014      -0.23962818        0
C        1.13971874       0.34845815      -0.14743627        0
N       -0.04567943       0.43584222      -0.75963935        0
C       -0.82488308      -0.65577074      -0.67645797        0
S       -2.37992174      -0.47230087      -1.54769839        0
O       -3.23271161      -1.62737381      -1.10533843        0
C       -2.96870904       1.00841351      -0.69220220        0
C       -0.47197492      -1.81039939      -0.03218182        0
C        0.76215736      -1.77239215       0.55360410        0
F        1.18670493      -2.86115596       1.21089413        0
N        1.59123028      -0.71762553       0.52010619        0
H        3.77597091       0.56098616      -0.05970864        0
H        3.71627687       2.29733540       0.26472412        0
H        3.06258256       1.18929449       1.47649839        0
H       -2.34912142       1.86674986      -0.96232667        0
H       -3.99739161       1.20170700      -1.00657950        0
H       -2.94781335       0.85219000       0.38930863        0
H       -1.10595590      -2.68299733       0.01716570        0
C        4.53268170      -2.28081908       2.53380575        0
O        3.45943441      -1.49683897       2.02559942        0
H        4.29078024      -3.31730399       2.30082305        0
H        3.65874421      -0.56867111       2.22480231        0
H        5.49019991      -2.03181927       2.06053659        0
H        4.64001296      -2.18415763       3.62098664        0
25
Properties=species:S:1:pos:R:3:fragment_id:I:1 config_id=nonwater_environment__pros_azaaryl_sulfoxide__ch3cn__altered_orientation molecule_id=pros_azaaryl_sulfoxide smiles=COc1nc(S(=O)C)cc(F)n1 chemical_role="diaza aryl ether sulfoxide fluoride" split=prospective_nonwater_environment_transfer regime=altered_orientation source_regime=orientation source_config_id=prospective__pros_azaaryl_sulfoxide__cluster_3water__orientation perturbant=CH3CN n_solute_atoms=19 n_environment_atoms=6 environment_molecule_count=1 source_water_oxygen_index=19 orientation_candidate_index=0 pbc="F F F"
C        3.17651484       1.35488885       0.39946798        0
O        1.91300562       1.48415014      -0.23962818        0
C        1.13971874       0.34845815      -0.14743627        0
N       -0.04567943       0.43584222      -0.75963935        0
C       -0.82488308      -0.65577074      -0.67645797        0
S       -2.37992174      -0.47230087      -1.54769839        0
O       -3.23271161      -1.62737381      -1.10533843        0
C       -2.96870904       1.00841351      -0.69220220        0
C       -0.47197492      -1.81039939      -0.03218182        0
C        0.76215736      -1.77239215       0.55360410        0
F        1.18670493      -2.86115596       1.21089413        0
N        1.59123028      -0.71762553       0.52010619        0
H        3.77597091       0.56098616      -0.05970864        0
H        3.71627687       2.29733540       0.26472412        0
H        3.06258256       1.18929449       1.47649839        0
H       -2.34912142       1.86674986      -0.96232667        0
H       -3.99739161       1.20170700      -1.00657950        0
H       -2.94781335       0.85219000       0.38930863        0
H       -1.10595590      -2.68299733       0.01716570        0
C        4.00170779       1.02847950       2.56758192        0
C        3.70155080      -0.36932468       2.26758594        0
N        3.45943441      -1.49683897       2.02559942        0
H        4.95493085       1.10312444       3.09421787        0
H        4.06394616       1.60584803       1.64328565        0
H        3.21767565       1.45421143       3.19654740        0
22
Properties=species:S:1:pos:R:3:fragment_id:I:1 config_id=nonwater_environment__pros_cyano_cyclic_acetal__nh3__equilibrium_like molecule_id=pros_cyano_cyclic_acetal smiles=COC1(C#N)CC(O)C1Cl chemical_role="cyclic ether alcohol nitrile chloride" split=prospective_nonwater_environment_transfer regime=equilibrium_like source_regime=equilibrium source_config_id=prospective__pros_cyano_cyclic_acetal__cluster_3water__equilibrium perturbant=NH3 n_solute_atoms=18 n_environment_atoms=4 environment_molecule_count=1 source_water_oxygen_index=21 orientation_candidate_index=0 pbc="F F F"
C       -2.65598389      -0.00226191       0.22404731        0
O       -1.43982410      -0.54185535       0.73063575        0
C       -0.25573081      -0.44231724      -0.11444553        0
C       -0.40800086      -1.23828723      -1.32897479        0
N       -0.53076444      -1.83244665      -2.31893599        0
C        0.26958068       1.00596289      -0.36595692        0
C        1.70823395       0.48290146      -0.16323860        0
O        2.60045082       1.36774969       0.53860932        0
C        1.09115984      -0.68035026       0.65577328        0
Cl       1.93914931      -2.27344788       0.63422319        0
H       -3.40323963      -0.03446397       1.02128641        0
H       -2.51820104       1.03749348      -0.08471345        0
H       -3.01780967      -0.60011823      -0.61670985        0
H        0.06896770       1.42828302      -1.35592395        0
H       -0.05008189       1.73618985       0.38770047        0
H        2.16503984       0.15773634      -1.10727326        0
H        3.43228741       0.86913509       0.63955261        0
H        1.00476679      -0.43990310       1.72411120        0
N        1.05978317      -3.95909204       1.82881427        0
H        0.44516370      -3.59318054       2.55146259        0
H        0.65690322      -4.84421344       1.53197015        0
H        1.93853001      -4.18455181       2.28798795        0
24
Properties=species:S:1:pos:R:3:fragment_id:I:1 config_id=nonwater_environment__pros_cyano_cyclic_acetal__ch3oh__equilibrium_like molecule_id=pros_cyano_cyclic_acetal smiles=COC1(C#N)CC(O)C1Cl chemical_role="cyclic ether alcohol nitrile chloride" split=prospective_nonwater_environment_transfer regime=equilibrium_like source_regime=equilibrium source_config_id=prospective__pros_cyano_cyclic_acetal__cluster_3water__equilibrium perturbant=CH3OH n_solute_atoms=18 n_environment_atoms=6 environment_molecule_count=1 source_water_oxygen_index=21 orientation_candidate_index=0 pbc="F F F"
C       -2.65598389      -0.00226191       0.22404731        0
O       -1.43982410      -0.54185535       0.73063575        0
C       -0.25573081      -0.44231724      -0.11444553        0
C       -0.40800086      -1.23828723      -1.32897479        0
N       -0.53076444      -1.83244665      -2.31893599        0
C        0.26958068       1.00596289      -0.36595692        0
C        1.70823395       0.48290146      -0.16323860        0
O        2.60045082       1.36774969       0.53860932        0
C        1.09115984      -0.68035026       0.65577328        0
Cl       1.93914931      -2.27344788       0.63422319        0
H       -3.40323963      -0.03446397       1.02128641        0
H       -2.51820104       1.03749348      -0.08471345        0
H       -3.01780967      -0.60011823      -0.61670985        0
H        0.06896770       1.42828302      -1.35592395        0
H       -0.05008189       1.73618985       0.38770047        0
H        2.16503984       0.15773634      -1.10727326        0
H        3.43228741       0.86913509       0.63955261        0
H        1.00476679      -0.43990310       1.72411120        0
C        0.51562370      -5.20069690       1.39630289        0
O        1.05978317      -3.95909204       1.82881427        0
H        1.18656785      -5.57576445       0.62412642        0
H        0.47344831      -3.61001968       2.51820653        0
H        0.46908614      -5.93906862       2.20591217        0
H       -0.48550438      -5.08771183       0.96294083        0
24
Properties=species:S:1:pos:R:3:fragment_id:I:1 config_id=nonwater_environment__pros_cyano_cyclic_acetal__ch3cn__equilibrium_like molecule_id=pros_cyano_cyclic_acetal smiles=COC1(C#N)CC(O)C1Cl chemical_role="cyclic ether alcohol nitrile chloride" split=prospective_nonwater_environment_transfer regime=equilibrium_like source_regime=equilibrium source_config_id=prospective__pros_cyano_cyclic_acetal__cluster_3water__equilibrium perturbant=CH3CN n_solute_atoms=18 n_environment_atoms=6 environment_molecule_count=1 source_water_oxygen_index=21 orientation_candidate_index=0 pbc="F F F"
C       -2.65598389      -0.00226191       0.22404731        0
O       -1.43982410      -0.54185535       0.73063575        0
C       -0.25573081      -0.44231724      -0.11444553        0
C       -0.40800086      -1.23828723      -1.32897479        0
N       -0.53076444      -1.83244665      -2.31893599        0
C        0.26958068       1.00596289      -0.36595692        0
C        1.70823395       0.48290146      -0.16323860        0
O        2.60045082       1.36774969       0.53860932        0
C        1.09115984      -0.68035026       0.65577328        0
Cl       1.93914931      -2.27344788       0.63422319        0
H       -3.40323963      -0.03446397       1.02128641        0
H       -2.51820104       1.03749348      -0.08471345        0
H       -3.01780967      -0.60011823      -0.61670985        0
H        0.06896770       1.42828302      -1.35592395        0
H       -0.05008189       1.73618985       0.38770047        0
H        2.16503984       0.15773634      -1.10727326        0
H        3.43228741       0.86913509       0.63955261        0
H        1.00476679      -0.43990310       1.72411120        0
C       -0.53549104      -3.00935125       3.70448254        0
C        0.34751876      -3.53504797       2.66627014        0
N        1.05978317      -3.95909204       1.82881427        0
H       -1.36722328      -3.69592165       3.87298790        0
H        0.01505925      -2.88712022       4.63909775        0
H       -0.93513389      -2.03968526       3.40185223        0
22
Properties=species:S:1:pos:R:3:fragment_id:I:1 config_id=nonwater_environment__pros_cyano_cyclic_acetal__nh3__altered_orientation molecule_id=pros_cyano_cyclic_acetal smiles=COC1(C#N)CC(O)C1Cl chemical_role="cyclic ether alcohol nitrile chloride" split=prospective_nonwater_environment_transfer regime=altered_orientation source_regime=orientation source_config_id=prospective__pros_cyano_cyclic_acetal__cluster_3water__orientation perturbant=NH3 n_solute_atoms=18 n_environment_atoms=4 environment_molecule_count=1 source_water_oxygen_index=21 orientation_candidate_index=0 pbc="F F F"
C       -2.65598389      -0.00226191       0.22404731        0
O       -1.43982410      -0.54185535       0.73063575        0
C       -0.25573081      -0.44231724      -0.11444553        0
C       -0.40800086      -1.23828723      -1.32897479        0
N       -0.53076444      -1.83244665      -2.31893599        0
C        0.26958068       1.00596289      -0.36595692        0
C        1.70823395       0.48290146      -0.16323860        0
O        2.60045082       1.36774969       0.53860932        0
C        1.09115984      -0.68035026       0.65577328        0
Cl       1.93914931      -2.27344788       0.63422319        0
H       -3.40323963      -0.03446397       1.02128641        0
H       -2.51820104       1.03749348      -0.08471345        0
H       -3.01780967      -0.60011823      -0.61670985        0
H        0.06896770       1.42828302      -1.35592395        0
H       -0.05008189       1.73618985       0.38770047        0
H        2.16503984       0.15773634      -1.10727326        0
H        3.43228741       0.86913509       0.63955261        0
H        1.00476679      -0.43990310       1.72411120        0
N        1.05978317      -3.95909204       1.82881427        0
H        1.09644907      -2.99840852       1.49773768        0
H        0.70737918      -3.91989732       2.78178005        0
H        2.02366088      -4.27637046       1.89317836        0
24
Properties=species:S:1:pos:R:3:fragment_id:I:1 config_id=nonwater_environment__pros_cyano_cyclic_acetal__ch3oh__altered_orientation molecule_id=pros_cyano_cyclic_acetal smiles=COC1(C#N)CC(O)C1Cl chemical_role="cyclic ether alcohol nitrile chloride" split=prospective_nonwater_environment_transfer regime=altered_orientation source_regime=orientation source_config_id=prospective__pros_cyano_cyclic_acetal__cluster_3water__orientation perturbant=CH3OH n_solute_atoms=18 n_environment_atoms=6 environment_molecule_count=1 source_water_oxygen_index=21 orientation_candidate_index=0 pbc="F F F"
C       -2.65598389      -0.00226191       0.22404731        0
O       -1.43982410      -0.54185535       0.73063575        0
C       -0.25573081      -0.44231724      -0.11444553        0
C       -0.40800086      -1.23828723      -1.32897479        0
N       -0.53076444      -1.83244665      -2.31893599        0
C        0.26958068       1.00596289      -0.36595692        0
C        1.70823395       0.48290146      -0.16323860        0
O        2.60045082       1.36774969       0.53860932        0
C        1.09115984      -0.68035026       0.65577328        0
Cl       1.93914931      -2.27344788       0.63422319        0
H       -3.40323963      -0.03446397       1.02128641        0
H       -2.51820104       1.03749348      -0.08471345        0
H       -3.01780967      -0.60011823      -0.61670985        0
H        0.06896770       1.42828302      -1.35592395        0
H       -0.05008189       1.73618985       0.38770047        0
H        2.16503984       0.15773634      -1.10727326        0
H        3.43228741       0.86913509       0.63955261        0
H        1.00476679      -0.43990310       1.72411120        0
C        0.56837618      -3.93034890       3.16389901        0
O        1.05978317      -3.95909204       1.82881427        0
H        0.53650707      -4.96627501       3.49996400        0
H        1.09476172      -3.04261890       1.51297373        0
H        1.22518768      -3.36595183       3.83686285        0
H       -0.44391215      -3.51287858       3.22567754        0
24
Properties=species:S:1:pos:R:3:fragment_id:I:1 config_id=nonwater_environment__pros_cyano_cyclic_acetal__ch3cn__altered_orientation molecule_id=pros_cyano_cyclic_acetal smiles=COC1(C#N)CC(O)C1Cl chemical_role="cyclic ether alcohol nitrile chloride" split=prospective_nonwater_environment_transfer regime=altered_orientation source_regime=orientation source_config_id=prospective__pros_cyano_cyclic_acetal__cluster_3water__orientation perturbant=CH3CN n_solute_atoms=18 n_environment_atoms=6 environment_molecule_count=1 source_water_oxygen_index=21 orientation_candidate_index=1 pbc="F F F"
C       -2.65598389      -0.00226191       0.22404731        0
O       -1.43982410      -0.54185535       0.73063575        0
C       -0.25573081      -0.44231724      -0.11444553        0
C       -0.40800086      -1.23828723      -1.32897479        0
N       -0.53076444      -1.83244665      -2.31893599        0
C        0.26958068       1.00596289      -0.36595692        0
C        1.70823395       0.48290146      -0.16323860        0
O        2.60045082       1.36774969       0.53860932        0
C        1.09115984      -0.68035026       0.65577328        0
Cl       1.93914931      -2.27344788       0.63422319        0
H       -3.40323963      -0.03446397       1.02128641        0
H       -2.51820104       1.03749348      -0.08471345        0
H       -3.01780967      -0.60011823      -0.61670985        0
H        0.06896770       1.42828302      -1.35592395        0
H       -0.05008189       1.73618985       0.38770047        0
H        2.16503984       0.15773634      -1.10727326        0
H        3.43228741       0.86913509       0.63955261        0
H        1.00476679      -0.43990310       1.72411120        0
C        0.96461508      -6.45259203       2.68813937        0
C        1.01729214      -5.07239989       2.21248918        0
N        1.05978317      -3.95909204       1.82881427        0
H        1.31042991      -7.13230885       1.90714728        0
H        1.60210544      -6.57169169       3.56619003        0
H       -0.05930558      -6.71794161       2.95782018        0
19
Properties=species:S:1:pos:R:3:fragment_id:I:1 config_id=nonwater_environment__pros_halogen_oxazinanone__nh3__equilibrium_like molecule_id=pros_halogen_oxazinanone smiles=O=C1N(CC#N)C(F)(Cl)CO1 chemical_role="cyclic carbamate nitrile mixed halogen" split=prospective_nonwater_environment_transfer regime=equilibrium_like source_regime=equilibrium source_config_id=prospective__pros_halogen_oxazinanone__cluster_3water__equilibrium perturbant=NH3 n_solute_atoms=15 n_environment_atoms=4 environment_molecule_count=1 source_water_oxygen_index=15 orientation_candidate_index=0 pbc="F F F"
O        0.09696843       2.37260867      -0.90555753        0
C       -0.42330379       1.33250295      -0.54248844        0
N        0.21458936       0.14470283      -0.36526438        0
C        1.64753650      -0.04130838      -0.41681878        0
C        2.27202520       0.07208063       0.91301936        0
N        2.75393138       0.15036163       1.96634328        0
C       -0.69381380      -0.86558653       0.03016824        0
F       -0.23409045      -1.51833203       1.11867690        0
Cl      -0.91052238      -1.99290144      -1.31466412        0
C       -1.95415603      -0.08681462       0.34388367        0
O       -1.75126834       1.20781405      -0.24647931        0
H        1.86325101      -1.01750017      -0.86244581        0
H        2.07518342       0.72358592      -1.07461670        0
H       -2.09002240       0.05012124       1.42208005        0
H       -2.86630811      -0.53133475      -0.06583641        0
N        4.24116001       0.23474421       3.10170219        0
H        4.12628111       0.70927869       3.99360396        0
H        4.95852063       0.74742063       2.59531774        0
H        3.37407816       0.37487369       2.58945091        0
21
Properties=species:S:1:pos:R:3:fragment_id:I:1 config_id=nonwater_environment__pros_halogen_oxazinanone__ch3oh__equilibrium_like molecule_id=pros_halogen_oxazinanone smiles=O=C1N(CC#N)C(F)(Cl)CO1 chemical_role="cyclic carbamate nitrile mixed halogen" split=prospective_nonwater_environment_transfer regime=equilibrium_like source_regime=equilibrium source_config_id=prospective__pros_halogen_oxazinanone__cluster_3water__equilibrium perturbant=CH3OH n_solute_atoms=15 n_environment_atoms=6 environment_molecule_count=1 source_water_oxygen_index=15 orientation_candidate_index=0 pbc="F F F"
O        0.09696843       2.37260867      -0.90555753        0
C       -0.42330379       1.33250295      -0.54248844        0
N        0.21458936       0.14470283      -0.36526438        0
C        1.64753650      -0.04130838      -0.41681878        0
C        2.27202520       0.07208063       0.91301936        0
N        2.75393138       0.15036163       1.96634328        0
C       -0.69381380      -0.86558653       0.03016824        0
F       -0.23409045      -1.51833203       1.11867690        0
Cl      -0.91052238      -1.99290144      -1.31466412        0
C       -1.95415603      -0.08681462       0.34388367        0
O       -1.75126834       1.20781405      -0.24647931        0
H        1.86325101      -1.01750017      -0.86244581        0
H        2.07518342       0.72358592      -1.07461670        0
H       -2.09002240       0.05012124       1.42208005        0
H       -2.86630811      -0.53133475      -0.06583641        0
C        5.24255871       0.93546410       2.37303867        0
O        4.24116001       0.23474421       3.10170219        0
H        5.35078937       0.41307368       1.42304257        0
H        4.13156780       0.68744075       3.95255890        0
H        4.95772493       1.97464198       2.16857652        0
H        6.21170281       0.92903587       2.88640417        0
21
Properties=species:S:1:pos:R:3:fragment_id:I:1 config_id=nonwater_environment__pros_halogen_oxazinanone__ch3cn__equilibrium_like molecule_id=pros_halogen_oxazinanone smiles=O=C1N(CC#N)C(F)(Cl)CO1 chemical_role="cyclic carbamate nitrile mixed halogen" split=prospective_nonwater_environment_transfer regime=equilibrium_like source_regime=equilibrium source_config_id=prospective__pros_halogen_oxazinanone__cluster_3water__equilibrium perturbant=CH3CN n_solute_atoms=15 n_environment_atoms=6 environment_molecule_count=1 source_water_oxygen_index=15 orientation_candidate_index=0 pbc="F F F"
O        0.09696843       2.37260867      -0.90555753        0
C       -0.42330379       1.33250295      -0.54248844        0
N        0.21458936       0.14470283      -0.36526438        0
C        1.64753650      -0.04130838      -0.41681878        0
C        2.27202520       0.07208063       0.91301936        0
N        2.75393138       0.15036163       1.96634328        0
C       -0.69381380      -0.86558653       0.03016824        0
F       -0.23409045      -1.51833203       1.11867690        0
Cl      -0.91052238      -1.99290144      -1.31466412        0
C       -1.95415603      -0.08681462       0.34388367        0
O       -1.75126834       1.20781405      -0.24647931        0
H        1.86325101      -1.01750017      -0.86244581        0
H        2.07518342       0.72358592      -1.07461670        0
H       -2.09002240       0.05012124       1.42208005        0
H       -2.86630811      -0.53133475      -0.06583641        0
C        3.94298633       1.46642115       5.41667588        0
C        4.10803023       0.78466826       4.13530091        0
N        4.24116001       0.23474421       3.10170219        0
H        4.62018662       2.32037875       5.47756670        0
H        2.91665882       1.82266218       5.52295766        0
H        4.16486018       0.78187272       6.23747859        0
19
Properties=species:S:1:pos:R:3:fragment_id:I:1 config_id=nonwater_environment__pros_halogen_oxazinanone__nh3__altered_orientation molecule_id=pros_halogen_oxazinanone smiles=O=C1N(CC#N)C(F)(Cl)CO1 chemical_role="cyclic carbamate nitrile mixed halogen" split=prospective_nonwater_environment_transfer regime=altered_orientation source_regime=orientation source_config_id=prospective__pros_halogen_oxazinanone__cluster_3water__orientation perturbant=NH3 n_solute_atoms=15 n_environment_atoms=4 environment_molecule_count=1 source_water_oxygen_index=15 orientation_candidate_index=0 pbc="F F F"
O        0.09696843       2.37260867      -0.90555753        0
C       -0.42330379       1.33250295      -0.54248844        0
N        0.21458936       0.14470283      -0.36526438        0
C        1.64753650      -0.04130838      -0.41681878        0
C        2.27202520       0.07208063       0.91301936        0
N        2.75393138       0.15036163       1.96634328        0
C       -0.69381380      -0.86558653       0.03016824        0
F       -0.23409045      -1.51833203       1.11867690        0
Cl      -0.91052238      -1.99290144      -1.31466412        0
C       -1.95415603      -0.08681462       0.34388367        0
O       -1.75126834       1.20781405      -0.24647931        0
H        1.86325101      -1.01750017      -0.86244581        0
H        2.07518342       0.72358592      -1.07461670        0
H       -2.09002240       0.05012124       1.42208005        0
H       -2.86630811      -0.53133475      -0.06583641        0
N        4.24116001       0.23474421       3.10170219        0
H        3.59285465      -0.14799823       3.78513273        0
H        3.78716545       0.14652788       2.19617726        0
H        5.04073424      -0.39311222       3.08310310        0
21
Properties=species:S:1:pos:R:3:fragment_id:I:1 config_id=nonwater_environment__pros_halogen_oxazinanone__ch3oh__altered_orientation molecule_id=pros_halogen_oxazinanone smiles=O=C1N(CC#N)C(F)(Cl)CO1 chemical_role="cyclic carbamate nitrile mixed halogen" split=prospective_nonwater_environment_transfer regime=altered_orientation source_regime=orientation source_config_id=prospective__pros_halogen_oxazinanone__cluster_3water__orientation perturbant=CH3OH n_solute_atoms=15 n_environment_atoms=6 environment_molecule_count=1 source_water_oxygen_index=15 orientation_candidate_index=1 pbc="F F F"
O        0.09696843       2.37260867      -0.90555753        0
C       -0.42330379       1.33250295      -0.54248844        0
N        0.21458936       0.14470283      -0.36526438        0
C        1.64753650      -0.04130838      -0.41681878        0
C        2.27202520       0.07208063       0.91301936        0
N        2.75393138       0.15036163       1.96634328        0
C       -0.69381380      -0.86558653       0.03016824        0
F       -0.23409045      -1.51833203       1.11867690        0
Cl      -0.91052238      -1.99290144      -1.31466412        0
C       -1.95415603      -0.08681462       0.34388367        0
O       -1.75126834       1.20781405      -0.24647931        0
H        1.86325101      -1.01750017      -0.86244581        0
H        2.07518342       0.72358592      -1.07461670        0
H       -2.09002240       0.05012124       1.42208005        0
H       -2.86630811      -0.53133475      -0.06583641        0
C        4.85554828       0.34723055       4.38022952        0
O        4.24116001       0.23474421       3.10170219        0
H        4.14720209      -0.06706218       5.09696198        0
H        4.85963054       0.59987295       2.44972293        0
H        5.78992299      -0.22342824       4.44440257        0
H        5.05849679       1.38968367       4.65396134        0
21
Properties=species:S:1:pos:R:3:fragment_id:I:1 config_id=nonwater_environment__pros_halogen_oxazinanone__ch3cn__altered_orientation molecule_id=pros_halogen_oxazinanone smiles=O=C1N(CC#N)C(F)(Cl)CO1 chemical_role="cyclic carbamate nitrile mixed halogen" split=prospective_nonwater_environment_transfer regime=altered_orientation source_regime=orientation source_config_id=prospective__pros_halogen_oxazinanone__cluster_3water__orientation perturbant=CH3CN n_solute_atoms=15 n_environment_atoms=6 environment_molecule_count=1 source_water_oxygen_index=15 orientation_candidate_index=0 pbc="F F F"
O        0.09696843       2.37260867      -0.90555753        0
C       -0.42330379       1.33250295      -0.54248844        0
N        0.21458936       0.14470283      -0.36526438        0
C        1.64753650      -0.04130838      -0.41681878        0
C        2.27202520       0.07208063       0.91301936        0
N        2.75393138       0.15036163       1.96634328        0
C       -0.69381380      -0.86558653       0.03016824        0
F       -0.23409045      -1.51833203       1.11867690        0
Cl      -0.91052238      -1.99290144      -1.31466412        0
C       -1.95415603      -0.08681462       0.34388367        0
O       -1.75126834       1.20781405      -0.24647931        0
H        1.86325101      -1.01750017      -0.86244581        0
H        2.07518342       0.72358592      -1.07461670        0
H       -2.09002240       0.05012124       1.42208005        0
H       -2.86630811      -0.53133475      -0.06583641        0
C        2.55845246      -0.75868209       4.87557882        0
C        3.48985801      -0.20880474       3.89370973        0
N        4.24116001       0.23474421       3.10170219        0
H        1.65063619      -1.10574985       4.37862300        0
H        3.01731938      -1.59997398       5.39828404        0
H        2.28926254       0.00570704       5.60687747        0
22
Properties=species:S:1:pos:R:3:fragment_id:I:1 config_id=nonwater_environment__pros_heteroaryl_amide__nh3__equilibrium_like molecule_id=pros_heteroaryl_amide smiles=O=C(N(C)C(F)Cl)c1nocc1 chemical_role="heteroaryl amide mixed halogen" split=prospective_nonwater_environment_transfer regime=equilibrium_like source_regime=equilibrium source_config_id=prospective__pros_heteroaryl_amide__cluster_3water__equilibrium perturbant=NH3 n_solute_atoms=18 n_environment_atoms=4 environment_molecule_count=1 source_water_oxygen_index=24 orientation_candidate_index=0 pbc="F F F"
O       -0.09406592      -2.06393236       0.13860694        0
C       -0.07456713      -0.83185540       0.09577631        0
N       -1.25836680      -0.11256570      -0.02418033        0
C       -1.37236909       1.31456697      -0.27491368        0
C       -2.48346197      -0.85481093       0.09985776        0
F       -3.42244077      -0.08190665       0.70746810        0
Cl      -3.05164004      -1.28240579      -1.52649655        0
C        1.21697731      -0.13127167       0.18389894        0
N        1.35905457       1.15281781       0.55555737        0
O        2.71576861       1.41253724       0.54727285        0
C        3.38857838       0.29087847       0.20035922        0
C        2.49530061      -0.71904214      -0.03089615        0
H       -2.31757081       1.53864951      -0.77899449        0
H       -1.34442132       1.84250132       0.68237121        0
H       -0.56469586       1.66180640      -0.92329719        0
H       -2.36828283      -1.77311088       0.68255786        0
H        4.46477407       0.37639853       0.17234797        0
H        2.71142900      -1.73925472      -0.31228770        0
N       -3.34253482       4.02637011      -0.88338734        0
H       -2.72438089       3.77406166      -1.65026092        0
H       -2.74853062       4.40422730      -0.14973107        0
H       -3.72212566       3.15450426      -0.52334664        0
24
Properties=species:S:1:pos:R:3:fragment_id:I:1 config_id=nonwater_environment__pros_heteroaryl_amide__ch3oh__equilibrium_like molecule_id=pros_heteroaryl_amide smiles=O=C(N(C)C(F)Cl)c1nocc1 chemical_role="heteroaryl amide mixed halogen" split=prospective_nonwater_environment_transfer regime=equilibrium_like source_regime=equilibrium source_config_id=prospective__pros_heteroaryl_amide__cluster_3water__equilibrium perturbant=CH3OH n_solute_atoms=18 n_environment_atoms=6 environment_molecule_count=1 source_water_oxygen_index=24 orientation_candidate_index=0 pbc="F F F"
O       -0.09406592      -2.06393236       0.13860694        0
C       -0.07456713      -0.83185540       0.09577631        0
N       -1.25836680      -0.11256570      -0.02418033        0
C       -1.37236909       1.31456697      -0.27491368        0
C       -2.48346197      -0.85481093       0.09985776        0
F       -3.42244077      -0.08190665       0.70746810        0
Cl      -3.05164004      -1.28240579      -1.52649655        0
C        1.21697731      -0.13127167       0.18389894        0
N        1.35905457       1.15281781       0.55555737        0
O        2.71576861       1.41253724       0.54727285        0
C        3.38857838       0.29087847       0.20035922        0
C        2.49530061      -0.71904214      -0.03089615        0
H       -2.31757081       1.53864951      -0.77899449        0
H       -1.34442132       1.84250132       0.68237121        0
H       -0.56469586       1.66180640      -0.92329719        0
H       -2.36828283      -1.77311088       0.68255786        0
H        4.46477407       0.37639853       0.17234797        0
H        2.71142900      -1.73925472      -0.31228770        0
C       -2.53249265       4.55899073       0.15820049        0
O       -3.34253482       4.02637011      -0.88338734        0
H       -3.21138636       4.82264976       0.96856180        0
H       -2.75282816       3.78567283      -1.61496962        0
H       -1.80675324       3.82846587       0.53564117        0
H       -1.99490015       5.46262541      -0.15367193        0
24
Properties=species:S:1:pos:R:3:fragment_id:I:1 config_id=nonwater_environment__pros_heteroaryl_amide__ch3cn__equilibrium_like molecule_id=pros_heteroaryl_amide smiles=O=C(N(C)C(F)Cl)c1nocc1 chemical_role="heteroaryl amide mixed halogen" split=prospective_nonwater_environment_transfer regime=equilibrium_like source_regime=equilibrium source_config_id=prospective__pros_heteroaryl_amide__cluster_3water__equilibrium perturbant=CH3CN n_solute_atoms=18 n_environment_atoms=6 environment_molecule_count=1 source_water_oxygen_index=24 orientation_candidate_index=0 pbc="F F F"
O       -0.09406592      -2.06393236       0.13860694        0
C       -0.07456713      -0.83185540       0.09577631        0
N       -1.25836680      -0.11256570      -0.02418033        0
C       -1.37236909       1.31456697      -0.27491368        0
C       -2.48346197      -0.85481093       0.09985776        0
F       -3.42244077      -0.08190665       0.70746810        0
Cl      -3.05164004      -1.28240579      -1.52649655        0
C        1.21697731      -0.13127167       0.18389894        0
N        1.35905457       1.15281781       0.55555737        0
O        2.71576861       1.41253724       0.54727285        0
C        3.38857838       0.29087847       0.20035922        0
C        2.49530061      -0.71904214      -0.03089615        0
H       -2.31757081       1.53864951      -0.77899449        0
H       -1.34442132       1.84250132       0.68237121        0
H       -0.56469586       1.66180640      -0.92329719        0
H       -2.36828283      -1.77311088       0.68255786        0
H        4.46477407       0.37639853       0.17234797        0
H        2.71142900      -1.73925472      -0.31228770        0
C       -1.73808675       3.37149148      -2.87384437        0
C       -2.62617443       3.73397728      -1.77209456        0
N       -3.34253482       4.02637011      -0.88338734        0
H       -0.70323712       3.60071117      -2.61289214        0
H       -1.81950147       2.30382253      -3.08599129        0
H       -2.00678167       3.93045422      -3.77212904        0
22
Properties=species:S:1:pos:R:3:fragment_id:I:1 config_id=nonwater_environment__pros_heteroaryl_amide__nh3__altered_orientation molecule_id=pros_heteroaryl_amide smiles=O=C(N(C)C(F)Cl)c1nocc1 chemical_role="heteroaryl amide mixed halogen" split=prospective_nonwater_environment_transfer regime=altered_orientation source_regime=orientation source_config_id=prospective__pros_heteroaryl_amide__cluster_3water__orientation perturbant=NH3 n_solute_atoms=18 n_environment_atoms=4 environment_molecule_count=1 source_water_oxygen_index=24 orientation_candidate_index=0 pbc="F F F"
O       -0.09406592      -2.06393236       0.13860694        0
C       -0.07456713      -0.83185540       0.09577631        0
N       -1.25836680      -0.11256570      -0.02418033        0
C       -1.37236909       1.31456697      -0.27491368        0
C       -2.48346197      -0.85481093       0.09985776        0
F       -3.42244077      -0.08190665       0.70746810        0
Cl      -3.05164004      -1.28240579      -1.52649655        0
C        1.21697731      -0.13127167       0.18389894        0
N        1.35905457       1.15281781       0.55555737        0
O        2.71576861       1.41253724       0.54727285        0
C        3.38857838       0.29087847       0.20035922        0
C        2.49530061      -0.71904214      -0.03089615        0
H       -2.31757081       1.53864951      -0.77899449        0
H       -1.34442132       1.84250132       0.68237121        0
H       -0.56469586       1.66180640      -0.92329719        0
H       -2.36828283      -1.77311088       0.68255786        0
H        4.46477407       0.37639853       0.17234797        0
H        2.71142900      -1.73925472      -0.31228770        0
N       -3.34253482       4.02637011      -0.88338734        0
H       -3.88239581       3.48348411      -1.55248660        0
H       -3.80873595       4.92639753      -0.80291547        0
H       -2.44336698       4.20826089      -1.32188649        0
24
Properties=species:S:1:pos:R:3:fragment_id:I:1 config_id=nonwater_environment__pros_heteroaryl_amide__ch3oh__altered_orientation molecule_id=pros_heteroaryl_amide smiles=O=C(N(C)C(F)Cl)c1nocc1 chemical_role="heteroaryl amide mixed halogen" split=prospective_nonwater_environment_transfer regime=altered_orientation source_regime=orientation source_config_id=prospective__pros_heteroaryl_amide__cluster_3water__orientation perturbant=CH3OH n_solute_atoms=18 n_environment_atoms=6 environment_molecule_count=1 source_water_oxygen_index=24 orientation_candidate_index=0 pbc="F F F"
O       -0.09406592      -2.06393236       0.13860694        0
C       -0.07456713      -0.83185540       0.09577631        0
N       -1.25836680      -0.11256570      -0.02418033        0
C       -1.37236909       1.31456697      -0.27491368        0
C       -2.48346197      -0.85481093       0.09985776        0
F       -3.42244077      -0.08190665       0.70746810        0
Cl      -3.05164004      -1.28240579      -1.52649655        0
C        1.21697731      -0.13127167       0.18389894        0
N        1.35905457       1.15281781       0.55555737        0
O        2.71576861       1.41253724       0.54727285        0
C        3.38857838       0.29087847       0.20035922        0
C        2.49530061      -0.71904214      -0.03089615        0
H       -2.31757081       1.53864951      -0.77899449        0
H       -1.34442132       1.84250132       0.68237121        0
H       -0.56469586       1.66180640      -0.92329719        0
H       -2.36828283      -1.77311088       0.68255786        0
H        4.46477407       0.37639853       0.17234797        0
H        2.71142900      -1.73925472      -0.31228770        0
C       -3.97682294       5.29347209      -0.75342814        0
O       -3.34253482       4.02637011      -0.88338734        0
H       -3.38505431       5.85889567      -0.03425897        0
H       -3.85755157       3.50846757      -1.52169484        0
H       -3.99727942       5.84743908      -1.69975147        0
H       -5.00132015       5.20858275      -0.37129597        0
24
Properties=species:S:1:pos:R:3:fragment_id:I:1 config_id=nonwater_environment__pros_heteroaryl_amide__ch3cn__altered_orientation molecule_id=pros_heteroaryl_amide smiles=O=C(N(C)C(F)Cl)c1nocc1 chemical_role="heteroaryl amide mixed halogen" split=prospective_nonwater_environment_transfer regime=altered_orientation source_regime=orientation source_config_id=prospective__pros_heteroaryl_amide__cluster_3water__orientation perturbant=CH3CN n_solute_atoms=18 n_environment_atoms=6 environment_molecule_count=1 source_water_oxygen_index=24 orientation_candidate_index=0 pbc="F F F"
O       -0.09406592      -2.06393236       0.13860694        0
C       -0.07456713      -0.83185540       0.09577631        0
N       -1.25836680      -0.11256570      -0.02418033        0
C       -1.37236909       1.31456697      -0.27491368        0
C       -2.48346197      -0.85481093       0.09985776        0
F       -3.42244077      -0.08190665       0.70746810        0
Cl      -3.05164004      -1.28240579      -1.52649655        0
C        1.21697731      -0.13127167       0.18389894        0
N        1.35905457       1.15281781       0.55555737        0
O        2.71576861       1.41253724       0.54727285        0
C        3.38857838       0.29087847       0.20035922        0
C        2.49530061      -0.71904214      -0.03089615        0
H       -2.31757081       1.53864951      -0.77899449        0
H       -1.34442132       1.84250132       0.68237121        0
H       -0.56469586       1.66180640      -0.92329719        0
H       -2.36828283      -1.77311088       0.68255786        0
H        4.46477407       0.37639853       0.17234797        0
H        2.71142900      -1.73925472      -0.31228770        0
C       -4.74376984       2.61728355      -2.62006645        0
C       -3.96816384       3.39723551      -1.65878678        0
N       -3.34253482       4.02637011      -0.88338734        0
H       -5.59232811       3.20188121      -2.98026907        0
H       -4.11878969       2.34225923      -3.47171959        0
H       -5.11820525       1.70634583      -2.14938370        0
20
Properties=species:S:1:pos:R:3:fragment_id:I:1 config_id=nonwater_environment__pros_isoxazole_thioether__nh3__equilibrium_like molecule_id=pros_isoxazole_thioether smiles=CSC1=NOC(C(O)F)=C1Cl chemical_role="isoxazole thioether alcohol mixed halogen" split=prospective_nonwater_environment_transfer regime=equilibrium_like source_regime=equilibrium source_config_id=prospective__pros_isoxazole_thioether__cluster_3water__equilibrium perturbant=NH3 n_solute_atoms=16 n_environment_atoms=4 environment_molecule_count=1 source_water_oxygen_index=19 orientation_candidate_index=0 pbc="F F F"
C       -3.28275780      -1.21645338      -0.60787425        0
S       -2.49996139       0.40996858      -0.56601707        0
C       -0.88630158       0.01838674      -0.01088239        0
N       -0.52096888      -1.22751609       0.30992265        0
O        0.80516923      -1.13690543       0.69692211        0
C        1.21781585       0.15748822       0.60862337        0
C        2.60759504       0.42657488       0.99631261        0
O        3.30520141       0.86945312      -0.14894365        0
F        2.69118196       1.45098725       1.88167702        0
C        0.17531731       0.93370255       0.16438718        0
Cl       0.17074555       2.60782426      -0.10869211        0
H       -3.30355340      -1.66429826       0.38961266        0
H       -4.31411518      -1.10674661      -0.95438340        0
H       -2.75911251      -1.88269675      -1.29919738        0
H        3.11345722      -0.44517153       1.41943222        0
H        3.48028718       1.80540244       0.05053706        0
N        4.37543996       2.35347112       3.19826504        0
H        4.24767185       2.69877215       4.14605796        0
H        4.94952375       3.04176235       2.71810719        0
H        3.46031254       2.38595997       2.75627538        0
22
Properties=species:S:1:pos:R:3:fragment_id:I:1 config_id=nonwater_environment__pros_isoxazole_thioether__ch3oh__equilibrium_like molecule_id=pros_isoxazole_thioether smiles=CSC1=NOC(C(O)F)=C1Cl chemical_role="isoxazole thioether alcohol mixed halogen" split=prospective_nonwater_environment_transfer regime=equilibrium_like source_regime=equilibrium source_config_id=prospective__pros_isoxazole_thioether__cluster_3water__equilibrium perturbant=CH3OH n_solute_atoms=16 n_environment_atoms=6 environment_molecule_count=1 source_water_oxygen_index=19 orientation_candidate_index=0 pbc="F F F"
C       -3.28275780      -1.21645338      -0.60787425        0
S       -2.49996139       0.40996858      -0.56601707        0
C       -0.88630158       0.01838674      -0.01088239        0
N       -0.52096888      -1.22751609       0.30992265        0
O        0.80516923      -1.13690543       0.69692211        0
C        1.21781585       0.15748822       0.60862337        0
C        2.60759504       0.42657488       0.99631261        0
O        3.30520141       0.86945312      -0.14894365        0
F        2.69118196       1.45098725       1.88167702        0
C        0.17531731       0.93370255       0.16438718        0
Cl       0.17074555       2.60782426      -0.10869211        0
H       -3.30355340      -1.66429826       0.38961266        0
H       -4.31411518      -1.10674661      -0.95438340        0
H       -2.75911251      -1.88269675      -1.29919738        0
H        3.11345722      -0.44517153       1.41943222        0
H        3.48028718       1.80540244       0.05053706        0
C        5.17779396       3.30205592       2.50459857        0
O        4.37543996       2.35347112       3.19826504        0
H        5.30301656       2.91510119       1.49381494        0
H        4.25355170       2.68288149       4.10244081        0
H        4.69871957       4.28673997       2.44368245        0
H        6.16950232       3.41888588       2.95813030        0
22
Properties=species:S:1:pos:R:3:fragment_id:I:1 config_id=nonwater_environment__pros_isoxazole_thioether__ch3cn__equilibrium_like molecule_id=pros_isoxazole_thioether smiles=CSC1=NOC(C(O)F)=C1Cl chemical_role="isoxazole thioether alcohol mixed halogen" split=prospective_nonwater_environment_transfer regime=equilibrium_like source_regime=equilibrium source_config_id=prospective__pros_isoxazole_thioether__cluster_3water__equilibrium perturbant=CH3CN n_solute_atoms=16 n_environment_atoms=6 environment_molecule_count=1 source_water_oxygen_index=19 orientation_candidate_index=0 pbc="F F F"
C       -3.28275780      -1.21645338      -0.60787425        0
S       -2.49996139       0.40996858      -0.56601707        0
C       -0.88630158       0.01838674      -0.01088239        0
N       -0.52096888      -1.22751609       0.30992265        0
O        0.80516923      -1.13690543       0.69692211        0
C        1.21781585       0.15748822       0.60862337        0
C        2.60759504       0.42657488       0.99631261        0
O        3.30520141       0.86945312      -0.14894365        0
F        2.69118196       1.45098725       1.88167702        0
C        0.17531731       0.93370255       0.16438718        0
Cl       0.17074555       2.60782426      -0.10869211        0
H       -3.30355340      -1.66429826       0.38961266        0
H       -4.31411518      -1.10674661      -0.95438340        0
H       -2.75911251      -1.88269675      -1.29919738        0
H        3.11345722      -0.44517153       1.41943222        0
H        3.48028718       1.80540244       0.05053706        0
C        4.04381173       3.24971644       5.65830688        0
C        4.22737326       2.75363032       4.29663436        0
N        4.37543996       2.35347112       3.19826504        0
H        4.56193847       4.20225161       5.78389722        0
H        2.98197912       3.39662500       5.86441616        0
H        4.44598662       2.53276873       6.37649418        0
20
Properties=species:S:1:pos:R:3:fragment_id:I:1 config_id=nonwater_environment__pros_isoxazole_thioether__nh3__altered_orientation molecule_id=pros_isoxazole_thioether smiles=CSC1=NOC(C(O)F)=C1Cl chemical_role="isoxazole thioether alcohol mixed halogen" split=prospective_nonwater_environment_transfer regime=altered_orientation source_regime=orientation source_config_id=prospective__pros_isoxazole_thioether__cluster_3water__orientation perturbant=NH3 n_solute_atoms=16 n_environment_atoms=4 environment_molecule_count=1 source_water_oxygen_index=19 orientation_candidate_index=0 pbc="F F F"
C       -3.28275780      -1.21645338      -0.60787425        0
S       -2.49996139       0.40996858      -0.56601707        0
C       -0.88630158       0.01838674      -0.01088239        0
N       -0.52096888      -1.22751609       0.30992265        0
O        0.80516923      -1.13690543       0.69692211        0
C        1.21781585       0.15748822       0.60862337        0
C        2.60759504       0.42657488       0.99631261        0
O        3.30520141       0.86945312      -0.14894365        0
F        2.69118196       1.45098725       1.88167702        0
C        0.17531731       0.93370255       0.16438718        0
Cl       0.17074555       2.60782426      -0.10869211        0
H       -3.30355340      -1.66429826       0.38961266        0
H       -4.31411518      -1.10674661      -0.95438340        0
H       -2.75911251      -1.88269675      -1.29919738        0
H        3.11345722      -0.44517153       1.41943222        0
H        3.48028718       1.80540244       0.05053706        0
N        4.37543996       2.35347112       3.19826504        0
H        3.95098333       2.50693712       2.28713735        0
H        4.95311415       3.16897704       3.38564485        0
H        5.01400214       1.56993034       3.08794387        0
22
Properties=species:S:1:pos:R:3:fragment_id:I:1 config_id=nonwater_environment__pros_isoxazole_thioether__ch3oh__altered_orientation molecule_id=pros_isoxazole_thioether smiles=CSC1=NOC(C(O)F)=C1Cl chemical_role="isoxazole thioether alcohol mixed halogen" split=prospective_nonwater_environment_transfer regime=altered_orientation source_regime=orientation source_config_id=prospective__pros_isoxazole_thioether__cluster_3water__orientation perturbant=CH3OH n_solute_atoms=16 n_environment_atoms=6 environment_molecule_count=1 source_water_oxygen_index=19 orientation_candidate_index=0 pbc="F F F"
C       -3.28275780      -1.21645338      -0.60787425        0
S       -2.49996139       0.40996858      -0.56601707        0
C       -0.88630158       0.01838674      -0.01088239        0
N       -0.52096888      -1.22751609       0.30992265        0
O        0.80516923      -1.13690543       0.69692211        0
C        1.21781585       0.15748822       0.60862337        0
C        2.60759504       0.42657488       0.99631261        0
O        3.30520141       0.86945312      -0.14894365        0
F        2.69118196       1.45098725       1.88167702        0
C        0.17531731       0.93370255       0.16438718        0
Cl       0.17074555       2.60782426      -0.10869211        0
H       -3.30355340      -1.66429826       0.38961266        0
H       -4.31411518      -1.10674661      -0.95438340        0
H       -2.75911251      -1.88269675      -1.29919738        0
H        3.11345722      -0.44517153       1.41943222        0
H        3.48028718       1.80540244       0.05053706        0
C        5.19075902       3.48424628       3.48350286        0
O        4.37543996       2.35347112       3.19826504        0
H        5.63556726       3.30122531       4.46112608        0
H        3.97051670       2.49987466       2.32906718        0
H        5.99788612       3.61034022       2.75174342        0
H        4.61046192       4.41354376       3.53337462        0
22
Properties=species:S:1:pos:R:3:fragment_id:I:1 config_id=nonwater_environment__pros_isoxazole_thioether__ch3cn__altered_orientation molecule_id=pros_isoxazole_thioether smiles=CSC1=NOC(C(O)F)=C1Cl chemical_role="isoxazole thioether alcohol mixed halogen" split=prospective_nonwater_environment_transfer regime=altered_orientation source_regime=orientation source_config_id=prospective__pros_isoxazole_thioether__cluster_3water__orientation perturbant=CH3CN n_solute_atoms=16 n_environment_atoms=6 environment_molecule_count=1 source_water_oxygen_index=19 orientation_candidate_index=1 pbc="F F F"
C       -3.28275780      -1.21645338      -0.60787425        0
S       -2.49996139       0.40996858      -0.56601707        0
C       -0.88630158       0.01838674      -0.01088239        0
N       -0.52096888      -1.22751609       0.30992265        0
O        0.80516923      -1.13690543       0.69692211        0
C        1.21781585       0.15748822       0.60862337        0
C        2.60759504       0.42657488       0.99631261        0
O        3.30520141       0.86945312      -0.14894365        0
F        2.69118196       1.45098725       1.88167702        0
C        0.17531731       0.93370255       0.16438718        0
Cl       0.17074555       2.60782426      -0.10869211        0
H       -3.30355340      -1.66429826       0.38961266        0
H       -4.31411518      -1.10674661      -0.95438340        0
H       -2.75911251      -1.88269675      -1.29919738        0
H        3.11345722      -0.44517153       1.41943222        0
H        3.48028718       1.80540244       0.05053706        0
C        5.47713744       1.95514278       5.56314052        0
C        4.86733026       2.17562389       4.25414411        0
N        4.37543996       2.35347112       3.19826504        0
H        5.15244122       0.99648220       5.97191153        0
H        6.56509107       1.94972281       5.47437581        0
H        5.18405811       2.74922635       6.25240639        0
22
Properties=species:S:1:pos:R:3:fragment_id:I:1 config_id=nonwater_environment__pros_polyfunctional_oxane__nh3__equilibrium_like molecule_id=pros_polyfunctional_oxane smiles=N#CC1(O)COC(CCl)C1F chemical_role="cyclic ether alcohol nitrile mixed halogen" split=prospective_nonwater_environment_transfer regime=equilibrium_like source_regime=equilibrium source_config_id=prospective__pros_polyfunctional_oxane__cluster_3water__equilibrium perturbant=NH3 n_solute_atoms=18 n_environment_atoms=4 environment_molecule_count=1 source_water_oxygen_index=21 orientation_candidate_index=0 pbc="F F F"
N       -3.21252295       1.70658089      -0.38336507        0
C       -2.37639760       0.90906755      -0.27117256        0
C       -1.30786399      -0.08567677      -0.12234304        0
O       -1.80385321      -1.29843708       0.47719741        0
C       -0.63916449      -0.41011482      -1.45654125        0
O        0.74477495      -0.73462730      -1.18483609        0
C        0.99689717      -0.44906041       0.20483658        0
C        2.40141066       0.10439133       0.42107852        0
Cl       2.66076139       1.67209707      -0.39224942        0
C       -0.13476680       0.44710115       0.67896017        0
F       -0.35129965       0.28550860       2.00988781        0
H       -1.98938283      -1.09068137       1.41376189        0
H       -0.63137307       0.44289773      -2.14465680        0
H       -1.09575806      -1.26666412      -1.96271654        0
H        0.94272026      -1.40850284       0.73588718        0
H        2.60314818       0.25015232       1.48628376        0
H        3.14721713      -0.58233298       0.00995842        0
H        0.04545291       1.50830103       0.48002903        0
N       -5.46676978       2.44546763      -0.52264704        0
H       -6.21319495       2.73713605      -1.14846484        0
H       -5.48222417       1.42883387      -0.51339878        0
H       -5.74203321       2.74414741       0.40949512        0
24
Properties=species:S:1:pos:R:3:fragment_id:I:1 config_id=nonwater_environment__pros_polyfunctional_oxane__ch3oh__equilibrium_like molecule_id=pros_polyfunctional_oxane smiles=N#CC1(O)COC(CCl)C1F chemical_role="cyclic ether alcohol nitrile mixed halogen" split=prospective_nonwater_environment_transfer regime=equilibrium_like source_regime=equilibrium source_config_id=prospective__pros_polyfunctional_oxane__cluster_3water__equilibrium perturbant=CH3OH n_solute_atoms=18 n_environment_atoms=6 environment_molecule_count=1 source_water_oxygen_index=21 orientation_candidate_index=0 pbc="F F F"
N       -3.21252295       1.70658089      -0.38336507        0
C       -2.37639760       0.90906755      -0.27117256        0
C       -1.30786399      -0.08567677      -0.12234304        0
O       -1.80385321      -1.29843708       0.47719741        0
C       -0.63916449      -0.41011482      -1.45654125        0
O        0.74477495      -0.73462730      -1.18483609        0
C        0.99689717      -0.44906041       0.20483658        0
C        2.40141066       0.10439133       0.42107852        0
Cl       2.66076139       1.67209707      -0.39224942        0
C       -0.13476680       0.44710115       0.67896017        0
F       -0.35129965       0.28550860       2.00988781        0
H       -1.98938283      -1.09068137       1.41376189        0
H       -0.63137307       0.44289773      -2.14465680        0
H       -1.09575806      -1.26666412      -1.96271654        0
H        0.94272026      -1.40850284       0.73588718        0
H        2.60314818       0.25015232       1.48628376        0
H        3.14721713      -0.58233298       0.00995842        0
H        0.04545291       1.50830103       0.48002903        0
C       -5.46822931       1.02283792      -0.49296846        0
O       -5.46676978       2.44546763      -0.52264704        0
H       -4.66366769       0.73061237       0.18111094        0
H       -6.17884468       2.72371356      -1.11966488        0
H       -6.41078640       0.61577209      -0.10734006        0
H       -5.27190278       0.58597597      -1.47959567        0
24
Properties=species:S:1:pos:R:3:fragment_id:I:1 config_id=nonwater_environment__pros_polyfunctional_oxane__ch3cn__equilibrium_like molecule_id=pros_polyfunctional_oxane smiles=N#CC1(O)COC(CCl)C1F chemical_role="cyclic ether alcohol nitrile mixed halogen" split=prospective_nonwater_environment_transfer regime=equilibrium_like source_regime=equilibrium source_config_id=prospective__pros_polyfunctional_oxane__cluster_3water__equilibrium perturbant=CH3CN n_solute_atoms=18 n_environment_atoms=6 environment_molecule_count=1 source_water_oxygen_index=21 orientation_candidate_index=0 pbc="F F F"
N       -3.21252295       1.70658089      -0.38336507        0
C       -2.37639760       0.90906755      -0.27117256        0
C       -1.30786399      -0.08567677      -0.12234304        0
O       -1.80385321      -1.29843708       0.47719741        0
C       -0.63916449      -0.41011482      -1.45654125        0
O        0.74477495      -0.73462730      -1.18483609        0
C        0.99689717      -0.44906041       0.20483658        0
C        2.40141066       0.10439133       0.42107852        0
Cl       2.66076139       1.67209707      -0.39224942        0
C       -0.13476680       0.44710115       0.67896017        0
F       -0.35129965       0.28550860       2.00988781        0
H       -1.98938283      -1.09068137       1.41376189        0
H       -0.63137307       0.44289773      -2.14465680        0
H       -1.09575806      -1.26666412      -1.96271654        0
H        0.94272026      -1.40850284       0.73588718        0
H        2.60314818       0.25015232       1.48628376        0
H        3.14721713      -0.58233298       0.00995842        0
H        0.04545291       1.50830103       0.48002903        0
C       -7.40415199       3.20250696      -2.14698705        0
C       -6.33177994       2.78347358      -1.24788887        0
N       -5.46676978       2.44546763      -0.52264704        0
H       -7.91651794       2.32844058      -2.55323892        0
H       -8.12820180       3.81591270      -1.60750869        0
H       -6.99456451       3.78625385      -2.97344293        0
22
Properties=species:S:1:pos:R:3:fragment_id:I:1 config_id=nonwater_environment__pros_polyfunctional_oxane__nh3__altered_orientation molecule_id=pros_polyfunctional_oxane smiles=N#CC1(O)COC(CCl)C1F chemical_role="cyclic ether alcohol nitrile mixed halogen" split=prospective_nonwater_environment_transfer regime=altered_orientation source_regime=orientation source_config_id=prospective__pros_polyfunctional_oxane__cluster_3water__orientation perturbant=NH3 n_solute_atoms=18 n_environment_atoms=4 environment_molecule_count=1 source_water_oxygen_index=21 orientation_candidate_index=0 pbc="F F F"
N       -3.21252295       1.70658089      -0.38336507        0
C       -2.37639760       0.90906755      -0.27117256        0
C       -1.30786399      -0.08567677      -0.12234304        0
O       -1.80385321      -1.29843708       0.47719741        0
C       -0.63916449      -0.41011482      -1.45654125        0
O        0.74477495      -0.73462730      -1.18483609        0
C        0.99689717      -0.44906041       0.20483658        0
C        2.40141066       0.10439133       0.42107852        0
Cl       2.66076139       1.67209707      -0.39224942        0
C       -0.13476680       0.44710115       0.67896017        0
F       -0.35129965       0.28550860       2.00988781        0
H       -1.98938283      -1.09068137       1.41376189        0
H       -0.63137307       0.44289773      -2.14465680        0
H       -1.09575806      -1.26666412      -1.96271654        0
H        0.94272026      -1.40850284       0.73588718        0
H        2.60314818       0.25015232       1.48628376        0
H        3.14721713      -0.58233298       0.00995842        0
H        0.04545291       1.50830103       0.48002903        0
N       -5.46676978       2.44546763      -0.52264704        0
H       -4.96205995       1.68373777      -0.96863418        0
H       -4.97396687       2.64645692       0.34373462        0
H       -6.37326255       2.07020703      -0.25559104        0
24
Properties=species:S:1:pos:R:3:fragment_id:I:1 config_id=nonwater_environment__pros_polyfunctional_oxane__ch3oh__altered_orientation molecule_id=pros_polyfunctional_oxane smiles=N#CC1(O)COC(CCl)C1F chemical_role="cyclic ether alcohol nitrile mixed halogen" split=prospective_nonwater_environment_transfer regime=altered_orientation source_regime=orientation source_config_id=prospective__pros_polyfunctional_oxane__cluster_3water__orientation perturbant=CH3OH n_solute_atoms=18 n_environment_atoms=6 environment_molecule_count=1 source_water_oxygen_index=21 orientation_candidate_index=0 pbc="F F F"
N       -3.21252295       1.70658089      -0.38336507        0
C       -2.37639760       0.90906755      -0.27117256        0
C       -1.30786399      -0.08567677      -0.12234304        0
O       -1.80385321      -1.29843708       0.47719741        0
C       -0.63916449      -0.41011482      -1.45654125        0
O        0.74477495      -0.73462730      -1.18483609        0
C        0.99689717      -0.44906041       0.20483658        0
C        2.40141066       0.10439133       0.42107852        0
Cl       2.66076139       1.67209707      -0.39224942        0
C       -0.13476680       0.44710115       0.67896017        0
F       -0.35129965       0.28550860       2.00988781        0
H       -1.98938283      -1.09068137       1.41376189        0
H       -0.63137307       0.44289773      -2.14465680        0
H       -1.09575806      -1.26666412      -1.96271654        0
H        0.94272026      -1.40850284       0.73588718        0
H        2.60314818       0.25015232       1.48628376        0
H        3.14721713      -0.58233298       0.00995842        0
H        0.04545291       1.50830103       0.48002903        0
C       -4.79451726       2.74563251       0.69502937        0
O       -5.46676978       2.44546763      -0.52264704        0
H       -5.34898911       3.56199395       1.15677951        0
H       -4.98528655       1.71879236      -0.94810998        0
H       -4.78705603       1.89461942       1.38680014        0
H       -3.76182154       3.07579348       0.52962379        0
24
Properties=species:S:1:pos:R:3:fragment_id:I:1 config_id=nonwater_environment__pros_polyfunctional_oxane__ch3cn__altered_orientation molecule_id=pros_polyfunctional_oxane smiles=N#CC1(O)COC(CCl)C1F chemical_role="cyclic ether alcohol nitrile mixed halogen" split=prospective_nonwater_environment_transfer regime=altered_orientation source_regime=orientation source_config_id=prospective__pros_polyfunctional_oxane__cluster_3water__orientation perturbant=CH3CN n_solute_atoms=18 n_environment_atoms=6 environment_molecule_count=1 source_water_oxygen_index=21 orientation_candidate_index=0 pbc="F F F"
N       -3.21252295       1.70658089      -0.38336507        0
C       -2.37639760       0.90906755      -0.27117256        0
C       -1.30786399      -0.08567677      -0.12234304        0
O       -1.80385321      -1.29843708       0.47719741        0
C       -0.63916449      -0.41011482      -1.45654125        0
O        0.74477495      -0.73462730      -1.18483609        0
C        0.99689717      -0.44906041       0.20483658        0
C        2.40141066       0.10439133       0.42107852        0
Cl       2.66076139       1.67209707      -0.39224942        0
C       -0.13476680       0.44710115       0.67896017        0
F       -0.35129965       0.28550860       2.00988781        0
H       -1.98938283      -1.09068137       1.41376189        0
H       -0.63137307       0.44289773      -2.14465680        0
H       -1.09575806      -1.26666412      -1.96271654        0
H        0.94272026      -1.40850284       0.73588718        0
H        2.60314818       0.25015232       1.48628376        0
H        3.14721713      -0.58233298       0.00995842        0
H        0.04545291       1.50830103       0.48002903        0
C       -4.15677129       0.46836137      -1.68022798        0
C       -4.88187641       1.56272132      -1.03948841        0
N       -5.46676978       2.44546763      -0.52264704        0
H       -3.30363313       0.17318787      -1.06656735        0
H       -4.81405823      -0.39380912      -1.80745834        0
H       -3.79354655       0.78192379      -2.66068606        0
25
Properties=species:S:1:pos:R:3:fragment_id:I:1 config_id=nonwater_environment__pros_sulfonyl_piperidinol__nh3__equilibrium_like molecule_id=pros_sulfonyl_piperidinol smiles=CS(=O)(=O)N1CC(F)C(O)C1 chemical_role="sulfonamide cyclic alcohol fluoride" split=prospective_nonwater_environment_transfer regime=equilibrium_like source_regime=equilibrium source_config_id=prospective__pros_sulfonyl_piperidinol__cluster_3water__equilibrium perturbant=NH3 n_solute_atoms=21 n_environment_atoms=4 environment_molecule_count=1 source_water_oxygen_index=27 orientation_candidate_index=0 pbc="F F F"
C        2.83289071       0.33093212       0.24918190        0
S        1.26934887       1.18655646       0.26223666        0
O        1.41247418       2.41485279      -0.48612286        0
O        0.72293269       1.18888696       1.60420872        0
N        0.27509504       0.14941367      -0.63803698        0
C        0.03566807      -1.22042285      -0.05758706        0
C       -1.47185622      -1.45033373      -0.09970460        0
F       -1.80581718      -2.02530384      -1.28829918        0
C       -2.04689322      -0.04941711      -0.04160861        0
O       -2.06736389       0.44652247       1.29934007        0
C       -1.08195402       0.72568406      -0.93834555        0
H        2.73063839      -0.62478347       0.76454485        0
H        3.14796662       0.19022734      -0.78633015        0
H        3.55831272       0.95589567       0.77483809        0
H        0.38894034      -1.27609730       0.97664886        0
H        0.57283941      -1.96094693      -0.65721794        0
H       -1.80963051      -2.10558922       0.70789620        0
H       -3.06736606      -0.00675422      -0.43276768        0
H       -1.17578289       0.78232982       1.53770647        0
H       -1.29023822       0.54610143      -1.99915208        0
H       -1.13020481       1.80224587      -0.75142912        0
N        3.48834368       3.40331492       0.85664035        0
H        4.38464391       2.92533078       0.81140793        0
H        3.11699952       3.40488680      -0.08991637        0
H        3.69248054       4.37279209       1.08535574        0
27
Properties=species:S:1:pos:R:3:fragment_id:I:1 config_id=nonwater_environment__pros_sulfonyl_piperidinol__ch3oh__equilibrium_like molecule_id=pros_sulfonyl_piperidinol smiles=CS(=O)(=O)N1CC(F)C(O)C1 chemical_role="sulfonamide cyclic alcohol fluoride" split=prospective_nonwater_environment_transfer regime=equilibrium_like source_regime=equilibrium source_config_id=prospective__pros_sulfonyl_piperidinol__cluster_3water__equilibrium perturbant=CH3OH n_solute_atoms=21 n_environment_atoms=6 environment_molecule_count=1 source_water_oxygen_index=27 orientation_candidate_index=0 pbc="F F F"
C        2.83289071       0.33093212       0.24918190        0
S        1.26934887       1.18655646       0.26223666        0
O        1.41247418       2.41485279      -0.48612286        0
O        0.72293269       1.18888696       1.60420872        0
N        0.27509504       0.14941367      -0.63803698        0
C        0.03566807      -1.22042285      -0.05758706        0
C       -1.47185622      -1.45033373      -0.09970460        0
F       -1.80581718      -2.02530384      -1.28829918        0
C       -2.04689322      -0.04941711      -0.04160861        0
O       -2.06736389       0.44652247       1.29934007        0
C       -1.08195402       0.72568406      -0.93834555        0
H        2.73063839      -0.62478347       0.76454485        0
H        3.14796662       0.19022734      -0.78633015        0
H        3.55831272       0.95589567       0.77483809        0
H        0.38894034      -1.27609730       0.97664886        0
H        0.57283941      -1.96094693      -0.65721794        0
H       -1.80963051      -2.10558922       0.70789620        0
H       -3.06736606      -0.00675422      -0.43276768        0
H       -1.17578289       0.78232982       1.53770647        0
H       -1.29023822       0.54610143      -1.99915208        0
H       -1.13020481       1.80224587      -0.75142912        0
C        2.94749053       3.41834015      -0.45941829        0
O        3.48834368       3.40331492       0.85664035        0
H        1.98982922       3.93330431      -0.39017259        0
H        4.34339644       2.94732747       0.81348952        0
H        3.58579500       3.96344939      -1.16528588        0
H        2.77232698       2.40810519      -0.84873666        0
27
Properties=species:S:1:pos:R:3:fragment_id:I:1 config_id=nonwater_environment__pros_sulfonyl_piperidinol__ch3cn__equilibrium_like molecule_id=pros_sulfonyl_piperidinol smiles=CS(=O)(=O)N1CC(F)C(O)C1 chemical_role="sulfonamide cyclic alcohol fluoride" split=prospective_nonwater_environment_transfer regime=equilibrium_like source_regime=equilibrium source_config_id=prospective__pros_sulfonyl_piperidinol__cluster_3water__equilibrium perturbant=CH3CN n_solute_atoms=21 n_environment_atoms=6 environment_molecule_count=1 source_water_oxygen_index=27 orientation_candidate_index=0 pbc="F F F"
C        2.83289071       0.33093212       0.24918190        0
S        1.26934887       1.18655646       0.26223666        0
O        1.41247418       2.41485279      -0.48612286        0
O        0.72293269       1.18888696       1.60420872        0
N        0.27509504       0.14941367      -0.63803698        0
C        0.03566807      -1.22042285      -0.05758706        0
C       -1.47185622      -1.45033373      -0.09970460        0
F       -1.80581718      -2.02530384      -1.28829918        0
C       -2.04689322      -0.04941711      -0.04160861        0
O       -2.06736389       0.44652247       1.29934007        0
C       -1.08195402       0.72568406      -0.93834555        0
H        2.73063839      -0.62478347       0.76454485        0
H        3.14796662       0.19022734      -0.78633015        0
H        3.55831272       0.95589567       0.77483809        0
H        0.38894034      -1.27609730       0.97664886        0
H        0.57283941      -1.96094693      -0.65721794        0
H       -1.80963051      -2.10558922       0.70789620        0
H       -3.06736606      -0.00675422      -0.43276768        0
H       -1.17578289       0.78232982       1.53770647        0
H       -1.29023822       0.54610143      -1.99915208        0
H       -1.13020481       1.80224587      -0.75142912        0
C        5.81473378       2.16268424       0.73923745        0
C        4.52703964       2.84939317       0.80422183        0
N        3.48834368       3.40331492       0.85664035        0
H        6.02040238       1.84663029      -0.28514618        0
H        6.61318362       2.83006519       1.06883139        0
H        5.80346289       1.28188578       1.38392241        0
25
Properties=species:S:1:pos:R:3:fragment_id:I:1 config_id=nonwater_environment__pros_sulfonyl_piperidinol__nh3__altered_orientation molecule_id=pros_sulfonyl_piperidinol smiles=CS(=O)(=O)N1CC(F)C(O)C1 chemical_role="sulfonamide cyclic alcohol fluoride" split=prospective_nonwater_environment_transfer regime=altered_orientation source_regime=orientation source_config_id=prospective__pros_sulfonyl_piperidinol__cluster_3water__orientation perturbant=NH3 n_solute_atoms=21 n_environment_atoms=4 environment_molecule_count=1 source_water_oxygen_index=27 orientation_candidate_index=0 pbc="F F F"
C        2.83289071       0.33093212       0.24918190        0
S        1.26934887       1.18655646       0.26223666        0
O        1.41247418       2.41485279      -0.48612286        0
O        0.72293269       1.18888696       1.60420872        0
N        0.27509504       0.14941367      -0.63803698        0
C        0.03566807      -1.22042285      -0.05758706        0
C       -1.47185622      -1.45033373      -0.09970460        0
F       -1.80581718      -2.02530384      -1.28829918        0
C       -2.04689322      -0.04941711      -0.04160861        0
O       -2.06736389       0.44652247       1.29934007        0
C       -1.08195402       0.72568406      -0.93834555        0
H        2.73063839      -0.62478347       0.76454485        0
H        3.14796662       0.19022734      -0.78633015        0
H        3.55831272       0.95589567       0.77483809        0
H        0.38894034      -1.27609730       0.97664886        0
H        0.57283941      -1.96094693      -0.65721794        0
H       -1.80963051      -2.10558922       0.70789620        0
H       -3.06736606      -0.00675422      -0.43276768        0
H       -1.17578289       0.78232982       1.53770647        0
H       -1.29023822       0.54610143      -1.99915208        0
H       -1.13020481       1.80224587      -0.75142912        0
N        3.48834368       3.40331492       0.85664035        0
H        3.26774323       3.74023627       1.79028287        0
H        2.91134222       3.94094728       0.21485430        0
H        3.15043811       2.44539563       0.81104388        0
27
Properties=species:S:1:pos:R:3:fragment_id:I:1 config_id=nonwater_environment__pros_sulfonyl_piperidinol__ch3oh__altered_orientation molecule_id=pros_sulfonyl_piperidinol smiles=CS(=O)(=O)N1CC(F)C(O)C1 chemical_role="sulfonamide cyclic alcohol fluoride" split=prospective_nonwater_environment_transfer regime=altered_orientation source_regime=orientation source_config_id=prospective__pros_sulfonyl_piperidinol__cluster_3water__orientation perturbant=CH3OH n_solute_atoms=21 n_environment_atoms=6 environment_molecule_count=1 source_water_oxygen_index=27 orientation_candidate_index=0 pbc="F F F"
C        2.83289071       0.33093212       0.24918190        0
S        1.26934887       1.18655646       0.26223666        0
O        1.41247418       2.41485279      -0.48612286        0
O        0.72293269       1.18888696       1.60420872        0
N        0.27509504       0.14941367      -0.63803698        0
C        0.03566807      -1.22042285      -0.05758706        0
C       -1.47185622      -1.45033373      -0.09970460        0
F       -1.80581718      -2.02530384      -1.28829918        0
C       -2.04689322      -0.04941711      -0.04160861        0
O       -2.06736389       0.44652247       1.29934007        0
C       -1.08195402       0.72568406      -0.93834555        0
H        2.73063839      -0.62478347       0.76454485        0
H        3.14796662       0.19022734      -0.78633015        0
H        3.55831272       0.95589567       0.77483809        0
H        0.38894034      -1.27609730       0.97664886        0
H        0.57283941      -1.96094693      -0.65721794        0
H       -1.80963051      -2.10558922       0.70789620        0
H       -3.06736606      -0.00675422      -0.43276768        0
H       -1.17578289       0.78232982       1.53770647        0
H       -1.29023822       0.54610143      -1.99915208        0
H       -1.13020481       1.80224587      -0.75142912        0
C        2.69128581       4.14246071      -0.06157558        0
O        3.48834368       3.40331492       0.85664035        0
H        2.94147192       3.76779913      -1.05361078        0
H        3.27789520       3.72473125       1.74731691        0
H        1.61767895       3.99401086       0.10622392        0
H        2.90875008       5.21695631      -0.03004405        0
27
Properties=species:S:1:pos:R:3:fragment_id:I:1 config_id=nonwater_environment__pros_sulfonyl_piperidinol__ch3cn__altered_orientation molecule_id=pros_sulfonyl_piperidinol smiles=CS(=O)(=O)N1CC(F)C(O)C1 chemical_role="sulfonamide cyclic alcohol fluoride" split=prospective_nonwater_environment_transfer regime=altered_orientation source_regime=orientation source_config_id=prospective__pros_sulfonyl_piperidinol__cluster_3water__orientation perturbant=CH3CN n_solute_atoms=21 n_environment_atoms=6 environment_molecule_count=1 source_water_oxygen_index=27 orientation_candidate_index=0 pbc="F F F"
C        2.83289071       0.33093212       0.24918190        0
S        1.26934887       1.18655646       0.26223666        0
O        1.41247418       2.41485279      -0.48612286        0
O        0.72293269       1.18888696       1.60420872        0
N        0.27509504       0.14941367      -0.63803698        0
C        0.03566807      -1.22042285      -0.05758706        0
C       -1.47185622      -1.45033373      -0.09970460        0
F       -1.80581718      -2.02530384      -1.28829918        0
C       -2.04689322      -0.04941711      -0.04160861        0
O       -2.06736389       0.44652247       1.29934007        0
C       -1.08195402       0.72568406      -0.93834555        0
H        2.73063839      -0.62478347       0.76454485        0
H        3.14796662       0.19022734      -0.78633015        0
H        3.55831272       0.95589567       0.77483809        0
H        0.38894034      -1.27609730       0.97664886        0
H        0.57283941      -1.96094693      -0.65721794        0
H       -1.80963051      -2.10558922       0.70789620        0
H       -3.06736606      -0.00675422      -0.43276768        0
H       -1.17578289       0.78232982       1.53770647        0
H       -1.29023822       0.54610143      -1.99915208        0
H       -1.13020481       1.80224587      -0.75142912        0
C        2.91576468       4.27781039       3.27995415        0
C        3.23269632       3.79376316       1.93861119        0
N        3.48834368       3.40331492       0.85664035        0
H        2.16302043       5.06651487       3.22635530        0
H        2.52739343       3.46140907       3.89167982        0
H        3.81251717       4.67872095       3.75603958        0
15
Properties=species:S:1:pos:R:3:fragment_id:I:1 config_id=nonwater_environment__prospective_diverse_01__nh3__equilibrium_like molecule_id=prospective_diverse_01 smiles=NCC(=O)N chemical_role=nan split=prospective_nonwater_environment_transfer regime=equilibrium_like source_regime=equilibrium source_config_id=prospective__prospective_diverse_01__cluster_3water__equilibrium perturbant=NH3 n_solute_atoms=11 n_environment_atoms=4 environment_molecule_count=1 source_water_oxygen_index=17 orientation_candidate_index=0 pbc="F F F"
N       -1.01935812       0.99614502       0.08786156        0
C       -0.77266571      -0.46118841       0.14245376        0
C        0.69639084      -0.78343811      -0.14435695        0
O        1.08690947      -1.87926205      -0.53026822        0
N        1.56472812       0.23999885       0.10511018        0
H       -2.00730605       1.15685685       0.28614860        0
H       -0.88241045       1.29988146      -0.87795359        0
H       -1.39721767      -0.96827069      -0.59911900        0
H       -1.01585707      -0.83659750       1.14083420        0
H        1.19210486       1.12655508       0.42773841        0
H        2.55468177       0.10931950      -0.03844896        0
N        2.26428569      -3.53335569      -1.03188325        0
H        2.85374620      -4.32402124      -0.78438938        0
H        2.89096074      -2.74937650      -1.19474386        0
H        1.72934739      -3.30348006      -0.19829655        0
17
Properties=species:S:1:pos:R:3:fragment_id:I:1 config_id=nonwater_environment__prospective_diverse_01__ch3oh__equilibrium_like molecule_id=prospective_diverse_01 smiles=NCC(=O)N chemical_role=nan split=prospective_nonwater_environment_transfer regime=equilibrium_like source_regime=equilibrium source_config_id=prospective__prospective_diverse_01__cluster_3water__equilibrium perturbant=CH3OH n_solute_atoms=11 n_environment_atoms=6 environment_molecule_count=1 source_water_oxygen_index=17 orientation_candidate_index=0 pbc="F F F"
N       -1.01935812       0.99614502       0.08786156        0
C       -0.77266571      -0.46118841       0.14245376        0
C        0.69639084      -0.78343811      -0.14435695        0
O        1.08690947      -1.87926205      -0.53026822        0
N        1.56472812       0.23999885       0.10511018        0
H       -2.00730605       1.15685685       0.28614860        0
H       -0.88241045       1.29988146      -0.87795359        0
H       -1.39721767      -0.96827069      -0.59911900        0
H       -1.01585707      -0.83659750       1.14083420        0
H        1.19210486       1.12655508       0.42773841        0
H        2.55468177       0.10931950      -0.03844896        0
C        3.12056483      -2.42109708      -1.26517506        0
O        2.26428569      -3.53335569      -1.03188325        0
H        2.47187856      -1.58619182      -1.52830536        0
H        2.82661940      -4.28763504      -0.79577898        0
H        3.69769575      -2.14629753      -0.37397876        0
H        3.81501546      -2.59769134      -2.09546327        0
17
Properties=species:S:1:pos:R:3:fragment_id:I:1 config_id=nonwater_environment__prospective_diverse_01__ch3cn__equilibrium_like molecule_id=prospective_diverse_01 smiles=NCC(=O)N chemical_role=nan split=prospective_nonwater_environment_transfer regime=equilibrium_like source_regime=equilibrium source_config_id=prospective__prospective_diverse_01__cluster_3water__equilibrium perturbant=CH3CN n_solute_atoms=11 n_environment_atoms=6 environment_molecule_count=1 source_water_oxygen_index=17 orientation_candidate_index=0 pbc="F F F"
N       -1.01935812       0.99614502       0.08786156        0
C       -0.77266571      -0.46118841       0.14245376        0
C        0.69639084      -0.78343811      -0.14435695        0
O        1.08690947      -1.87926205      -0.53026822        0
N        1.56472812       0.23999885       0.10511018        0
H       -2.00730605       1.15685685       0.28614860        0
H       -0.88241045       1.29988146      -0.87795359        0
H       -1.39721767      -0.96827069      -0.59911900        0
H       -1.01585707      -0.83659750       1.14083420        0
H        1.19210486       1.12655508       0.42773841        0
H        2.55468177       0.10931950      -0.03844896        0
C        3.79425862      -5.58556591      -0.38950108        0
C        2.94739413      -4.44963472      -0.74506989        0
N        2.26428569      -3.53335569      -1.03188325        0
H        4.84435578      -5.28756552      -0.39607590        0
H        3.53729831      -5.94782597       0.60764018        0
H        3.65407757      -6.39714040      -1.10591421        0
15
Properties=species:S:1:pos:R:3:fragment_id:I:1 config_id=nonwater_environment__prospective_diverse_01__nh3__altered_orientation molecule_id=prospective_diverse_01 smiles=NCC(=O)N chemical_role=nan split=prospective_nonwater_environment_transfer regime=altered_orientation source_regime=orientation source_config_id=prospective__prospective_diverse_01__cluster_3water__orientation perturbant=NH3 n_solute_atoms=11 n_environment_atoms=4 environment_molecule_count=1 source_water_oxygen_index=17 orientation_candidate_index=0 pbc="F F F"
N       -1.01935812       0.99614502       0.08786156        0
C       -0.77266571      -0.46118841       0.14245376        0
C        0.69639084      -0.78343811      -0.14435695        0
O        1.08690947      -1.87926205      -0.53026822        0
N        1.56472812       0.23999885       0.10511018        0
H       -2.00730605       1.15685685       0.28614860        0
H       -0.88241045       1.29988146      -0.87795359        0
H       -1.39721767      -0.96827069      -0.59911900        0
H       -1.01585707      -0.83659750       1.14083420        0
H        1.19210486       1.12655508       0.42773841        0
H        2.55468177       0.10931950      -0.03844896        0
N        2.26428569      -3.53335569      -1.03188325        0
H        2.32266271      -4.38949280      -1.57730994        0
H        3.05320045      -2.95853854      -1.31660649        0
H        2.43711803      -3.79767772      -0.06537851        0
17
Properties=species:S:1:pos:R:3:fragment_id:I:1 config_id=nonwater_environment__prospective_diverse_01__ch3oh__altered_orientation molecule_id=prospective_diverse_01 smiles=NCC(=O)N chemical_role=nan split=prospective_nonwater_environment_transfer regime=altered_orientation source_regime=orientation source_config_id=prospective__prospective_diverse_01__cluster_3water__orientation perturbant=CH3OH n_solute_atoms=11 n_environment_atoms=6 environment_molecule_count=1 source_water_oxygen_index=17 orientation_candidate_index=0 pbc="F F F"
N       -1.01935812       0.99614502       0.08786156        0
C       -0.77266571      -0.46118841       0.14245376        0
C        0.69639084      -0.78343811      -0.14435695        0
O        1.08690947      -1.87926205      -0.53026822        0
N        1.56472812       0.23999885       0.10511018        0
H       -2.00730605       1.15685685       0.28614860        0
H       -0.88241045       1.29988146      -0.87795359        0
H       -1.39721767      -0.96827069      -0.59911900        0
H       -1.01585707      -0.83659750       1.14083420        0
H        1.19210486       1.12655508       0.42773841        0
H        2.55468177       0.10931950      -0.03844896        0
C        3.36060922      -2.71041853      -1.41346860        0
O        2.26428569      -3.53335569      -1.03188325        0
H        3.28061691      -1.80043947      -0.81963565        0
H        2.31997622      -4.35009362      -1.55220957        0
H        4.32801087      -3.18123804      -1.20065702        0
H        3.32619545      -2.43758526      -2.47516696        0
17
Properties=species:S:1:pos:R:3:fragment_id:I:1 config_id=nonwater_environment__prospective_diverse_01__ch3cn__altered_orientation molecule_id=prospective_diverse_01 smiles=NCC(=O)N chemical_role=nan split=prospective_nonwater_environment_transfer regime=altered_orientation source_regime=orientation source_config_id=prospective__prospective_diverse_01__cluster_3water__orientation perturbant=CH3CN n_solute_atoms=11 n_environment_atoms=6 environment_molecule_count=1 source_water_oxygen_index=17 orientation_candidate_index=0 pbc="F F F"
N       -1.01935812       0.99614502       0.08786156        0
C       -0.77266571      -0.46118841       0.14245376        0
C        0.69639084      -0.78343811      -0.14435695        0
O        1.08690947      -1.87926205      -0.53026822        0
N        1.56472812       0.23999885       0.10511018        0
H       -2.00730605       1.15685685       0.28614860        0
H       -0.88241045       1.29988146      -0.87795359        0
H       -1.39721767      -0.96827069      -0.59911900        0
H       -1.01585707      -0.83659750       1.14083420        0
H        1.19210486       1.12655508       0.42773841        0
H        2.55468177       0.10931950      -0.03844896        0
C        2.41580604      -5.75550050      -2.44756431        0
C        2.33193710      -4.52550779      -1.66396219        0
N        2.26428569      -3.53335569      -1.03188325        0
H        3.28333023      -5.72073364      -3.10918696        0
H        2.51297682      -6.61717656      -1.78452294        0
H        1.51577632      -5.87694946      -3.05316178        0
13
Properties=species:S:1:pos:R:3:fragment_id:I:1 config_id=nonwater_environment__prospective_diverse_02__nh3__equilibrium_like molecule_id=prospective_diverse_02 smiles=OCCI chemical_role=nan split=prospective_nonwater_environment_transfer regime=equilibrium_like source_regime=equilibrium source_config_id=prospective__prospective_diverse_02__cluster_3water__equilibrium perturbant=NH3 n_solute_atoms=9 n_environment_atoms=4 environment_molecule_count=1 source_water_oxygen_index=12 orientation_candidate_index=0 pbc="F F F"
O       -1.45306628       0.42999847      -0.54234022        0
C       -0.58658591      -0.43805968       0.18178416        0
C        0.87449460      -0.16453248      -0.16025607        0
I        1.50790534       1.72089778       0.65929860        0
H       -1.22385999       1.34217714      -0.28754044        0
H       -0.84412617      -1.46225099      -0.10596244        0
H       -0.79235240      -0.32889585       1.25172438        0
H        1.50600082      -0.95928090       0.24984576        0
H        1.01159000      -0.14005350      -1.24655373        0
N       -2.51830064       0.53443974      -2.49171137        0
H       -1.66109882       0.83167209      -2.95076135        0
H       -3.21251787       0.42369968      -3.22633213        0
H       -2.82570831       1.31982762      -1.92378974        0
15
Properties=species:S:1:pos:R:3:fragment_id:I:1 config_id=nonwater_environment__prospective_diverse_02__ch3oh__equilibrium_like molecule_id=prospective_diverse_02 smiles=OCCI chemical_role=nan split=prospective_nonwater_environment_transfer regime=equilibrium_like source_regime=equilibrium source_config_id=prospective__prospective_diverse_02__cluster_3water__equilibrium perturbant=CH3OH n_solute_atoms=9 n_environment_atoms=6 environment_molecule_count=1 source_water_oxygen_index=12 orientation_candidate_index=0 pbc="F F F"
O       -1.45306628       0.42999847      -0.54234022        0
C       -0.58658591      -0.43805968       0.18178416        0
C        0.87449460      -0.16453248      -0.16025607        0
I        1.50790534       1.72089778       0.65929860        0
H       -1.22385999       1.34217714      -0.28754044        0
H       -0.84412617      -1.46225099      -0.10596244        0
H       -0.79235240      -0.32889585       1.25172438        0
H        1.50600082      -0.95928090       0.24984576        0
H        1.01159000      -0.14005350      -1.24655373        0
C       -3.50742924       0.37234551      -3.50171548        0
O       -2.51830064       0.53443974      -2.49171137        0
H       -4.41596822       0.05449570      -2.99119942        0
H       -1.70054700       0.81799355      -2.92963601        0
H       -3.71616087       1.30848461      -4.03359933        0
H       -3.23224679      -0.39643161      -4.23389175        0
15
Properties=species:S:1:pos:R:3:fragment_id:I:1 config_id=nonwater_environment__prospective_diverse_02__ch3cn__equilibrium_like molecule_id=prospective_diverse_02 smiles=OCCI chemical_role=nan split=prospective_nonwater_environment_transfer regime=equilibrium_like source_regime=equilibrium source_config_id=prospective__prospective_diverse_02__cluster_3water__equilibrium perturbant=CH3CN n_solute_atoms=9 n_environment_atoms=6 environment_molecule_count=1 source_water_oxygen_index=12 orientation_candidate_index=0 pbc="F F F"
O       -1.45306628       0.42999847      -0.54234022        0
C       -0.58658591      -0.43805968       0.18178416        0
C        0.87449460      -0.16453248      -0.16025607        0
I        1.50790534       1.72089778       0.65929860        0
H       -1.22385999       1.34217714      -0.28754044        0
H       -0.84412617      -1.46225099      -0.10596244        0
H       -0.79235240      -0.32889585       1.25172438        0
H        1.50600082      -0.95928090       0.24984576        0
H        1.01159000      -0.14005350      -1.24655373        0
C       -0.29339235       1.30592052      -3.68319755        0
C       -1.52491468       0.87889356      -3.02369089        0
N       -2.51830064       0.53443974      -2.49171137        0
H       -0.45287637       1.38715622      -4.76000631        0
H        0.02027599       2.27845863      -3.29935716        0
H        0.50196088       0.58139621      -3.49872693        0
13
Properties=species:S:1:pos:R:3:fragment_id:I:1 config_id=nonwater_environment__prospective_diverse_02__nh3__altered_orientation molecule_id=prospective_diverse_02 smiles=OCCI chemical_role=nan split=prospective_nonwater_environment_transfer regime=altered_orientation source_regime=orientation source_config_id=prospective__prospective_diverse_02__cluster_3water__orientation perturbant=NH3 n_solute_atoms=9 n_environment_atoms=4 environment_molecule_count=1 source_water_oxygen_index=12 orientation_candidate_index=0 pbc="F F F"
O       -1.45306628       0.42999847      -0.54234022        0
C       -0.58658591      -0.43805968       0.18178416        0
C        0.87449460      -0.16453248      -0.16025607        0
I        1.50790534       1.72089778       0.65929860        0
H       -1.22385999       1.34217714      -0.28754044        0
H       -0.84412617      -1.46225099      -0.10596244        0
H       -0.79235240      -0.32889585       1.25172438        0
H        1.50600082      -0.95928090       0.24984576        0
H        1.01159000      -0.14005350      -1.24655373        0
N       -2.51830064       0.53443974      -2.49171137        0
H       -2.50296131       1.31421076      -1.83933818        0
H       -3.49302013       0.26159067      -2.58837508        0
H       -2.05001484      -0.23808880      -2.02504592        0
15
Properties=species:S:1:pos:R:3:fragment_id:I:1 config_id=nonwater_environment__prospective_diverse_02__ch3oh__altered_orientation molecule_id=prospective_diverse_02 smiles=OCCI chemical_role=nan split=prospective_nonwater_environment_transfer regime=altered_orientation source_regime=orientation source_config_id=prospective__prospective_diverse_02__cluster_3water__orientation perturbant=CH3OH n_solute_atoms=9 n_environment_atoms=6 environment_molecule_count=1 source_water_oxygen_index=12 orientation_candidate_index=0 pbc="F F F"
O       -1.45306628       0.42999847      -0.54234022        0
C       -0.58658591      -0.43805968       0.18178416        0
C        0.87449460      -0.16453248      -0.16025607        0
I        1.50790534       1.72089778       0.65929860        0
H       -1.22385999       1.34217714      -0.28754044        0
H       -0.84412617      -1.46225099      -0.10596244        0
H       -0.79235240      -0.32889585       1.25172438        0
H        1.50600082      -0.95928090       0.24984576        0
H        1.01159000      -0.14005350      -1.24655373        0
C       -3.87517879       0.13378682      -2.64375468        0
O       -2.51830064       0.53443974      -2.49171137        0
H       -3.87058513      -0.70045575      -3.34455170        0
H       -2.50366723       1.27832592      -1.86936020        0
H       -4.31658288      -0.20709291      -1.69940879        0
H       -4.50106761       0.93335116      -3.05822515        0
15
Properties=species:S:1:pos:R:3:fragment_id:I:1 config_id=nonwater_environment__prospective_diverse_02__ch3cn__altered_orientation molecule_id=prospective_diverse_02 smiles=OCCI chemical_role=nan split=prospective_nonwater_environment_transfer regime=altered_orientation source_regime=orientation source_config_id=prospective__prospective_diverse_02__cluster_3water__orientation perturbant=CH3CN n_solute_atoms=9 n_environment_atoms=6 environment_molecule_count=1 source_water_oxygen_index=12 orientation_candidate_index=0 pbc="F F F"
O       -1.45306628       0.42999847      -0.54234022        0
C       -0.58658591      -0.43805968       0.18178416        0
C        0.87449460      -0.16453248      -0.16025607        0
I        1.50790534       1.72089778       0.65929860        0
H       -1.22385999       1.34217714      -0.28754044        0
H       -0.84412617      -1.46225099      -0.10596244        0
H       -0.79235240      -0.32889585       1.25172438        0
H        1.50600082      -0.95928090       0.24984576        0
H        1.01159000      -0.14005350      -1.24655373        0
C       -2.47848669       2.55837269      -0.79844556        0
C       -2.50052435       1.43809342      -1.73569528        0
N       -2.51830064       0.53443974      -2.49171137        0
H       -3.49219350       2.79005201      -0.46636924        0
H       -1.87132001       2.30682079       0.07311735        0
H       -2.05495491       3.44201135      -1.27943954        0
18
Properties=species:S:1:pos:R:3:fragment_id:I:1 config_id=nonwater_environment__prospective_diverse_03__nh3__equilibrium_like molecule_id=prospective_diverse_03 smiles=O1CCOCC1 chemical_role=nan split=prospective_nonwater_environment_transfer regime=equilibrium_like source_regime=equilibrium source_config_id=prospective__prospective_diverse_03__cluster_3water__equilibrium perturbant=NH3 n_solute_atoms=14 n_environment_atoms=4 environment_molecule_count=1 source_water_oxygen_index=14 orientation_candidate_index=0 pbc="F F F"
O        0.78583174       1.07704767       0.44056782        0
C       -0.41933223       1.31675135      -0.30141180        0
C       -1.39217026       0.14974482      -0.13655817        0
O       -0.78583020      -1.07704960      -0.56984882        0
C        0.41933304      -1.31675136       0.17213470        0
C        1.39217104      -0.14974543       0.00727230        0
H       -0.86747494       2.24288828       0.07038446        0
H       -0.15568256       1.46051770      -1.35562206        0
H       -2.29113666       0.31415554      -0.73790771        0
H       -1.69426549       0.03710232       0.91110096        0
H        0.86747600      -2.24289142      -0.19965558        0
H        0.15568108      -1.46051151       1.22634730        0
H        2.29114442      -0.31415514       0.60861325        0
H        1.69425502      -0.03710322      -1.04039088        0
N        1.26005375      -5.21140911       0.67807179        0
H        0.57941632      -4.49703743       0.43256273        0
H        2.12988025      -4.72249257       0.87359940        0
H        1.42108046      -5.75508175      -0.16594186        0
20
Properties=species:S:1:pos:R:3:fragment_id:I:1 config_id=nonwater_environment__prospective_diverse_03__ch3oh__equilibrium_like molecule_id=prospective_diverse_03 smiles=O1CCOCC1 chemical_role=nan split=prospective_nonwater_environment_transfer regime=equilibrium_like source_regime=equilibrium source_config_id=prospective__prospective_diverse_03__cluster_3water__equilibrium perturbant=CH3OH n_solute_atoms=14 n_environment_atoms=6 environment_molecule_count=1 source_water_oxygen_index=14 orientation_candidate_index=0 pbc="F F F"
O        0.78583174       1.07704767       0.44056782        0
C       -0.41933223       1.31675135      -0.30141180        0
C       -1.39217026       0.14974482      -0.13655817        0
O       -0.78583020      -1.07704960      -0.56984882        0
C        0.41933304      -1.31675136       0.17213470        0
C        1.39217104      -0.14974543       0.00727230        0
H       -0.86747494       2.24288828       0.07038446        0
H       -0.15568256       1.46051770      -1.35562206        0
H       -2.29113666       0.31415554      -0.73790771        0
H       -1.69426549       0.03710232       0.91110096        0
H        0.86747600      -2.24289142      -0.19965558        0
H        0.15568108      -1.46051151       1.22634730        0
H        2.29114442      -0.31415514       0.60861325        0
H        1.69425502      -0.03710322      -1.04039088        0
C        2.48882643      -4.55019616       0.95677124        0
O        1.26005375      -5.21140911       0.67807179        0
H        3.20332304      -5.33048142       1.21705519        0
H        0.61073905      -4.52991261       0.44386099        0
H        2.87276428      -4.00220847       0.08779084        0
H        2.40588402      -3.85755487       1.80305390        0
20
Properties=species:S:1:pos:R:3:fragment_id:I:1 config_id=nonwater_environment__prospective_diverse_03__ch3cn__equilibrium_like molecule_id=prospective_diverse_03 smiles=O1CCOCC1 chemical_role=nan split=prospective_nonwater_environment_transfer regime=equilibrium_like source_regime=equilibrium source_config_id=prospective__prospective_diverse_03__cluster_3water__equilibrium perturbant=CH3CN n_solute_atoms=14 n_environment_atoms=6 environment_molecule_count=1 source_water_oxygen_index=14 orientation_candidate_index=0 pbc="F F F"
O        0.78583174       1.07704767       0.44056782        0
C       -0.41933223       1.31675135      -0.30141180        0
C       -1.39217026       0.14974482      -0.13655817        0
O       -0.78583020      -1.07704960      -0.56984882        0
C        0.41933304      -1.31675136       0.17213470        0
C        1.39217104      -0.14974543       0.00727230        0
H       -0.86747494       2.24288828       0.07038446        0
H       -0.15568256       1.46051770      -1.35562206        0
H       -2.29113666       0.31415554      -0.73790771        0
H       -1.69426549       0.03710232       0.91110096        0
H        0.86747600      -2.24289142      -0.19965558        0
H        0.15568108      -1.46051151       1.22634730        0
H        2.29114442      -0.31415514       0.60861325        0
H        1.69425502      -0.03710322      -1.04039088        0
C       -0.50657325      -3.35722326       0.04084129        0
C        0.47128306      -4.38354479       0.39355857        0
N        1.26005375      -5.21140911       0.67807179        0
H       -0.04526064      -2.36881012       0.08305070        0
H       -0.88184181      -3.52776241      -0.96992156        0
H       -1.34657136      -3.38377516       0.73744003        0
18
Properties=species:S:1:pos:R:3:fragment_id:I:1 config_id=nonwater_environment__prospective_diverse_03__nh3__altered_orientation molecule_id=prospective_diverse_03 smiles=O1CCOCC1 chemical_role=nan split=prospective_nonwater_environment_transfer regime=altered_orientation source_regime=orientation source_config_id=prospective__prospective_diverse_03__cluster_3water__orientation perturbant=NH3 n_solute_atoms=14 n_environment_atoms=4 environment_molecule_count=1 source_water_oxygen_index=14 orientation_candidate_index=0 pbc="F F F"
O        0.78583174       1.07704767       0.44056782        0
C       -0.41933223       1.31675135      -0.30141180        0
C       -1.39217026       0.14974482      -0.13655817        0
O       -0.78583020      -1.07704960      -0.56984882        0
C        0.41933304      -1.31675136       0.17213470        0
C        1.39217104      -0.14974543       0.00727230        0
H       -0.86747494       2.24288828       0.07038446        0
H       -0.15568256       1.46051770      -1.35562206        0
H       -2.29113666       0.31415554      -0.73790771        0
H       -1.69426549       0.03710232       0.91110096        0
H        0.86747600      -2.24289142      -0.19965558        0
H        0.15568108      -1.46051151       1.22634730        0
H        2.29114442      -0.31415514       0.60861325        0
H        1.69425502      -0.03710322      -1.04039088        0
N        1.26005375      -5.21140911       0.67807179        0
H        0.33155776      -5.08089784       0.28471328        0
H        1.71994888      -5.91005655       0.09992233        0
H        1.12639552      -5.63867443       1.59100574        0
20
Properties=species:S:1:pos:R:3:fragment_id:I:1 config_id=nonwater_environment__prospective_diverse_03__ch3oh__altered_orientation molecule_id=prospective_diverse_03 smiles=O1CCOCC1 chemical_role=nan split=prospective_nonwater_environment_transfer regime=altered_orientation source_regime=orientation source_config_id=prospective__prospective_diverse_03__cluster_3water__orientation perturbant=CH3OH n_solute_atoms=14 n_environment_atoms=6 environment_molecule_count=1 source_water_oxygen_index=14 orientation_candidate_index=0 pbc="F F F"
O        0.78583174       1.07704767       0.44056782        0
C       -0.41933223       1.31675135      -0.30141180        0
C       -1.39217026       0.14974482      -0.13655817        0
O       -0.78583020      -1.07704960      -0.56984882        0
C        0.41933304      -1.31675136       0.17213470        0
C        1.39217104      -0.14974543       0.00727230        0
H       -0.86747494       2.24288828       0.07038446        0
H       -0.15568256       1.46051770      -1.35562206        0
H       -2.29113666       0.31415554      -0.73790771        0
H       -1.69426549       0.03710232       0.91110096        0
H        0.86747600      -2.24289142      -0.19965558        0
H        0.15568108      -1.46051151       1.22634730        0
H        2.29114442      -0.31415514       0.60861325        0
H        1.69425502      -0.03710322      -1.04039088        0
C        1.92500337      -6.18718551      -0.11594374        0
O        1.26005375      -5.21140911       0.67807179        0
H        2.91543483      -6.31266457       0.32040332        0
H        0.37428687      -5.08690393       0.30281553        0
H        1.41203037      -7.15642601      -0.09990343        0
H        2.04171042      -5.86620830      -1.15814277        0
20
Properties=species:S:1:pos:R:3:fragment_id:I:1 config_id=nonwater_environment__prospective_diverse_03__ch3cn__altered_orientation molecule_id=prospective_diverse_03 smiles=O1CCOCC1 chemical_role=nan split=prospective_nonwater_environment_transfer regime=altered_orientation source_regime=orientation source_config_id=prospective__prospective_diverse_03__cluster_3water__orientation perturbant=CH3CN n_solute_atoms=14 n_environment_atoms=6 environment_molecule_count=1 source_water_oxygen_index=14 orientation_candidate_index=0 pbc="F F F"
O        0.78583174       1.07704767       0.44056782        0
C       -0.41933223       1.31675135      -0.30141180        0
C       -1.39217026       0.14974482      -0.13655817        0
O       -0.78583020      -1.07704960      -0.56984882        0
C        0.41933304      -1.31675136       0.17213470        0
C        1.39217104      -0.14974543       0.00727230        0
H       -0.86747494       2.24288828       0.07038446        0
H       -0.15568256       1.46051770      -1.35562206        0
H       -2.29113666       0.31415554      -0.73790771        0
H       -1.69426549       0.03710232       0.91110096        0
H        0.86747600      -2.24289142      -0.19965558        0
H        0.15568108      -1.46051151       1.22634730        0
H        2.29114442      -0.31415514       0.60861325        0
H        1.69425502      -0.03710322      -1.04039088        0
C       -1.14990199      -4.87266087      -0.34290902        0
C        0.18404707      -5.06016344       0.22222020        0
N        1.26005375      -5.21140911       0.67807179        0
H       -1.28395124      -5.51981325      -1.21168752        0
H       -1.91052273      -5.11893698       0.40029742        0
H       -1.28374334      -3.83466274      -0.65306709        0
12
Properties=species:S:1:pos:R:3:fragment_id:I:1 config_id=nonwater_environment__prospective_diverse_04__nh3__equilibrium_like molecule_id=prospective_diverse_04 smiles=c1nccs1 chemical_role=nan split=prospective_nonwater_environment_transfer regime=equilibrium_like source_regime=equilibrium source_config_id=prospective__prospective_diverse_04__cluster_3water__equilibrium perturbant=NH3 n_solute_atoms=8 n_environment_atoms=4 environment_molecule_count=1 source_water_oxygen_index=11 orientation_candidate_index=0 pbc="F F F"
C        1.37214998      -0.09055001      -0.28230593        0
N        0.70441497       1.02370028      -0.07672554        0
C       -0.64841489       0.74505612      -0.05788454        0
C       -0.98849381      -0.57730164      -0.24951018        0
S        0.43204978      -1.51502684      -0.46220649        0
H        2.45268217      -0.11536374      -0.33614612        0
H       -1.35238758       1.55289076       0.10132035        0
H       -1.97200062      -1.02340493      -0.27399795        0
N        1.78997329       2.73929500       0.49411307        0
H        0.85974091       2.99185011       0.81776805        0
H        2.40101685       3.51065811       0.75002962        0
H        1.74741348       2.73309042      -0.52177016        0
14
Properties=species:S:1:pos:R:3:fragment_id:I:1 config_id=nonwater_environment__prospective_diverse_04__ch3oh__equilibrium_like molecule_id=prospective_diverse_04 smiles=c1nccs1 chemical_role=nan split=prospective_nonwater_environment_transfer regime=equilibrium_like source_regime=equilibrium source_config_id=prospective__prospective_diverse_04__cluster_3water__equilibrium perturbant=CH3OH n_solute_atoms=8 n_environment_atoms=6 environment_molecule_count=1 source_water_oxygen_index=11 orientation_candidate_index=0 pbc="F F F"
C        1.37214998      -0.09055001      -0.28230593        0
N        0.70441497       1.02370028      -0.07672554        0
C       -0.64841489       0.74505612      -0.05788454        0
C       -0.98849381      -0.57730164      -0.24951018        0
S        0.43204978      -1.51502684      -0.46220649        0
H        2.45268217      -0.11536374      -0.33614612        0
H       -1.35238758       1.55289076       0.10132035        0
H       -1.97200062      -1.02340493      -0.27399795        0
C        2.66531492       3.80597758       0.84156601        0
O        1.78997329       2.73929500       0.49411307        0
H        3.65434205       3.51715076       0.48730252        0
H        0.90254993       2.98022760       0.80287354        0
H        2.38394194       4.74929949       0.35803860        0
H        2.71655294       3.96581862       1.92537930        0
14
Properties=species:S:1:pos:R:3:fragment_id:I:1 config_id=nonwater_environment__prospective_diverse_04__ch3cn__equilibrium_like molecule_id=prospective_diverse_04 smiles=c1nccs1 chemical_role=nan split=prospective_nonwater_environment_transfer regime=equilibrium_like source_regime=equilibrium source_config_id=prospective__prospective_diverse_04__cluster_3water__equilibrium perturbant=CH3CN n_solute_atoms=8 n_environment_atoms=6 environment_molecule_count=1 source_water_oxygen_index=11 orientation_candidate_index=0 pbc="F F F"
C        1.37214998      -0.09055001      -0.28230593        0
N        0.70441497       1.02370028      -0.07672554        0
C       -0.64841489       0.74505612      -0.05788454        0
C       -0.98849381      -0.57730164      -0.24951018        0
S        0.43204978      -1.51502684      -0.46220649        0
H        2.45268217      -0.11536374      -0.33614612        0
H       -1.35238758       1.55289076       0.10132035        0
H       -1.97200062      -1.02340493      -0.27399795        0
C       -0.62448933       3.39481387       1.33417504        0
C        0.71195436       3.03197369       0.86918730        0
N        1.78997329       2.73929500       0.49411307        0
H       -0.60091755       4.37296653       1.81813086        0
H       -1.31703201       3.43555326       0.49139596        0
H       -0.98595321       2.65568155       2.05151661        0
12
Properties=species:S:1:pos:R:3:fragment_id:I:1 config_id=nonwater_environment__prospective_diverse_04__nh3__altered_orientation molecule_id=prospective_diverse_04 smiles=c1nccs1 chemical_role=nan split=prospective_nonwater_environment_transfer regime=altered_orientation source_regime=orientation source_config_id=prospective__prospective_diverse_04__cluster_3water__orientation perturbant=NH3 n_solute_atoms=8 n_environment_atoms=4 environment_molecule_count=1 source_water_oxygen_index=11 orientation_candidate_index=0 pbc="F F F"
C        1.37214998      -0.09055001      -0.28230593        0
N        0.70441497       1.02370028      -0.07672554        0
C       -0.64841489       0.74505612      -0.05788454        0
C       -0.98849381      -0.57730164      -0.24951018        0
S        0.43204978      -1.51502684      -0.46220649        0
H        2.45268217      -0.11536374      -0.33614612        0
H       -1.35238758       1.55289076       0.10132035        0
H       -1.97200062      -1.02340493      -0.27399795        0
N        1.78997329       2.73929500       0.49411307        0
H        2.03767603       3.70623356       0.68787087        0
H        1.80270151       2.63803919      -0.51754588        0
H        0.82047876       2.62958779       0.78031799        0
14
Properties=species:S:1:pos:R:3:fragment_id:I:1 config_id=nonwater_environment__prospective_diverse_04__ch3oh__altered_orientation molecule_id=prospective_diverse_04 smiles=c1nccs1 chemical_role=nan split=prospective_nonwater_environment_transfer regime=altered_orientation source_regime=orientation source_config_id=prospective__prospective_diverse_04__cluster_3water__orientation perturbant=CH3OH n_solute_atoms=8 n_environment_atoms=6 environment_molecule_count=1 source_water_oxygen_index=11 orientation_candidate_index=0 pbc="F F F"
C        1.37214998      -0.09055001      -0.28230593        0
N        0.70441497       1.02370028      -0.07672554        0
C       -0.64841489       0.74505612      -0.05788454        0
C       -0.98849381      -0.57730164      -0.24951018        0
S        0.43204978      -1.51502684      -0.46220649        0
H        2.45268217      -0.11536374      -0.33614612        0
H       -1.35238758       1.55289076       0.10132035        0
H       -1.97200062      -1.02340493      -0.27399795        0
C        1.80103367       2.57241248      -0.91896376        0
O        1.78997329       2.73929500       0.49411307        0
H        1.53387356       1.53279032      -1.10580450        0
H        2.02627682       3.66173533       0.67895419        0
H        1.06745073       3.21588417      -1.41958936        0
H        2.79069301       2.76096915      -1.35237639        0
14
Properties=species:S:1:pos:R:3:fragment_id:I:1 config_id=nonwater_environment__prospective_diverse_04__ch3cn__altered_orientation molecule_id=prospective_diverse_04 smiles=c1nccs1 chemical_role=nan split=prospective_nonwater_environment_transfer regime=altered_orientation source_regime=orientation source_config_id=prospective__prospective_diverse_04__cluster_3water__orientation perturbant=CH3CN n_solute_atoms=8 n_environment_atoms=6 environment_molecule_count=1 source_water_oxygen_index=11 orientation_candidate_index=0 pbc="F F F"
C        1.37214998      -0.09055001      -0.28230593        0
N        0.70441497       1.02370028      -0.07672554        0
C       -0.64841489       0.74505612      -0.05788454        0
C       -0.98849381      -0.57730164      -0.24951018        0
S        0.43204978      -1.51502684      -0.46220649        0
H        2.45268217      -0.11536374      -0.33614612        0
H       -1.35238758       1.55289076       0.10132035        0
H       -1.97200062      -1.02340493      -0.27399795        0
C        2.43289759       5.24903026       0.99702070        0
C        2.07702870       3.85985164       0.71865328        0
N        1.78997329       2.73929500       0.49411307        0
H        2.61091041       5.78536719       0.06310120        0
H        1.62343149       5.74281894       1.53784324        0
H        3.33873555       5.28999952       1.60474658        0
19
Properties=species:S:1:pos:R:3:fragment_id:I:1 config_id=nonwater_environment__prospective_diverse_05__nh3__equilibrium_like molecule_id=prospective_diverse_05 smiles=O=S1(=O)CCCC1 chemical_role=nan split=prospective_nonwater_environment_transfer regime=equilibrium_like source_regime=equilibrium source_config_id=prospective__prospective_diverse_05__cluster_3water__equilibrium perturbant=NH3 n_solute_atoms=15 n_environment_atoms=4 environment_molecule_count=1 source_water_oxygen_index=15 orientation_candidate_index=0 pbc="F F F"
O       -1.87190928       1.00890348       1.35090769        0
S       -1.33947517       0.62250975       0.06087132        0
O       -2.07239471       0.82417850      -1.17166223        0
C       -0.81480000      -1.08317618       0.14737168        0
C        0.63632065      -1.08047239      -0.31977724        0
C        1.25685804       0.20063347       0.23374364        0
C        0.29248937       1.32591556      -0.12363579        0
H       -0.89038910      -1.40408293       1.19042334        0
H       -1.45699836      -1.70158511      -0.48284367        0
H        1.16814641      -1.97292757       0.02309030        0
H        0.67596306      -1.06505191      -1.41568521        0
H        2.25371432       0.38264655      -0.17859367        0
H        1.35231444       0.12242750       1.32351224        0
H        0.41101455       1.62686768      -1.16863899        0
H        0.39914580       2.19321361       0.53091659        0
N       -3.67056828       1.60071131       2.27115696        0
H       -4.65690992       1.74209072       2.47366854        0
H       -3.24040395       2.52188700       2.28736130        0
H       -3.61970267       1.27824337       1.30819502        0
21
Properties=species:S:1:pos:R:3:fragment_id:I:1 config_id=nonwater_environment__prospective_diverse_05__ch3oh__equilibrium_like molecule_id=prospective_diverse_05 smiles=O=S1(=O)CCCC1 chemical_role=nan split=prospective_nonwater_environment_transfer regime=equilibrium_like source_regime=equilibrium source_config_id=prospective__prospective_diverse_05__cluster_3water__equilibrium perturbant=CH3OH n_solute_atoms=15 n_environment_atoms=6 environment_molecule_count=1 source_water_oxygen_index=15 orientation_candidate_index=0 pbc="F F F"
O       -1.87190928       1.00890348       1.35090769        0
S       -1.33947517       0.62250975       0.06087132        0
O       -2.07239471       0.82417850      -1.17166223        0
C       -0.81480000      -1.08317618       0.14737168        0
C        0.63632065      -1.08047239      -0.31977724        0
C        1.25685804       0.20063347       0.23374364        0
C        0.29248937       1.32591556      -0.12363579        0
H       -0.89038910      -1.40408293       1.19042334        0
H       -1.45699836      -1.70158511      -0.48284367        0
H        1.16814641      -1.97292757       0.02309030        0
H        0.67596306      -1.06505191      -1.41568521        0
H        2.25371432       0.38264655      -0.17859367        0
H        1.35231444       0.12242750       1.32351224        0
H        0.41101455       1.62686768      -1.16863899        0
H        0.39914580       2.19321361       0.53091659        0
C       -3.04543984       2.87886618       2.28826863        0
O       -3.67056828       1.60071131       2.27115696        0
H       -1.99203906       2.70657803       2.06972385        0
H       -4.61151877       1.73558448       2.46434902        0
H       -3.45394708       3.55199109       1.52482222        0
H       -3.12271076       3.36665709       3.26751066        0
21
Properties=species:S:1:pos:R:3:fragment_id:I:1 config_id=nonwater_environment__prospective_diverse_05__ch3cn__equilibrium_like molecule_id=prospective_diverse_05 smiles=O=S1(=O)CCCC1 chemical_role=nan split=prospective_nonwater_environment_transfer regime=equilibrium_like source_regime=equilibrium source_config_id=prospective__prospective_diverse_05__cluster_3water__equilibrium perturbant=CH3CN n_solute_atoms=15 n_environment_atoms=6 environment_molecule_count=1 source_water_oxygen_index=15 orientation_candidate_index=0 pbc="F F F"
O       -1.87190928       1.00890348       1.35090769        0
S       -1.33947517       0.62250975       0.06087132        0
O       -2.07239471       0.82417850      -1.17166223        0
C       -0.81480000      -1.08317618       0.14737168        0
C        0.63632065      -1.08047239      -0.31977724        0
C        1.25685804       0.20063347       0.23374364        0
C        0.29248937       1.32591556      -0.12363579        0
H       -0.89038910      -1.40408293       1.19042334        0
H       -1.45699836      -1.70158511      -0.48284367        0
H        1.16814641      -1.97292757       0.02309030        0
H        0.67596306      -1.06505191      -1.41568521        0
H        2.25371432       0.38264655      -0.17859367        0
H        1.35231444       0.12242750       1.32351224        0
H        0.41101455       1.62686768      -1.16863899        0
H        0.39914580       2.19321361       0.53091659        0
C       -6.23066516       1.96766834       2.79678545        0
C       -4.81361058       1.76455175       2.50584167        0
N       -3.67056828       1.60071131       2.27115696        0
H       -6.43439408       3.02929696       2.94841226        0
H       -6.83994994       1.60739838       1.96580454        0
H       -6.51023947       1.42291814       3.70046519        0
19
Properties=species:S:1:pos:R:3:fragment_id:I:1 config_id=nonwater_environment__prospective_diverse_05__nh3__altered_orientation molecule_id=prospective_diverse_05 smiles=O=S1(=O)CCCC1 chemical_role=nan split=prospective_nonwater_environment_transfer regime=altered_orientation source_regime=orientation source_config_id=prospective__prospective_diverse_05__cluster_3water__orientation perturbant=NH3 n_solute_atoms=15 n_environment_atoms=4 environment_molecule_count=1 source_water_oxygen_index=15 orientation_candidate_index=0 pbc="F F F"
O       -1.87190928       1.00890348       1.35090769        0
S       -1.33947517       0.62250975       0.06087132        0
O       -2.07239471       0.82417850      -1.17166223        0
C       -0.81480000      -1.08317618       0.14737168        0
C        0.63632065      -1.08047239      -0.31977724        0
C        1.25685804       0.20063347       0.23374364        0
C        0.29248937       1.32591556      -0.12363579        0
H       -0.89038910      -1.40408293       1.19042334        0
H       -1.45699836      -1.70158511      -0.48284367        0
H        1.16814641      -1.97292757       0.02309030        0
H        0.67596306      -1.06505191      -1.41568521        0
H        2.25371432       0.38264655      -0.17859367        0
H        1.35231444       0.12242750       1.32351224        0
H        0.41101455       1.62686768      -1.16863899        0
H        0.39914580       2.19321361       0.53091659        0
N       -3.67056828       1.60071131       2.27115696        0
H       -3.57657568       2.25220964       1.49618327        0
H       -2.83526379       1.71095733       2.84035007        0
H       -3.62125106       0.66833764       1.86852098        0
21
Properties=species:S:1:pos:R:3:fragment_id:I:1 config_id=nonwater_environment__prospective_diverse_05__ch3oh__altered_orientation molecule_id=prospective_diverse_05 smiles=O=S1(=O)CCCC1 chemical_role=nan split=prospective_nonwater_environment_transfer regime=altered_orientation source_regime=orientation source_config_id=prospective__prospective_diverse_05__cluster_3water__orientation perturbant=CH3OH n_solute_atoms=15 n_environment_atoms=6 environment_molecule_count=1 source_water_oxygen_index=15 orientation_candidate_index=0 pbc="F F F"
O       -1.87190928       1.00890348       1.35090769        0
S       -1.33947517       0.62250975       0.06087132        0
O       -2.07239471       0.82417850      -1.17166223        0
C       -0.81480000      -1.08317618       0.14737168        0
C        0.63632065      -1.08047239      -0.31977724        0
C        1.25685804       0.20063347       0.23374364        0
C        0.29248937       1.32591556      -0.12363579        0
H       -0.89038910      -1.40408293       1.19042334        0
H       -1.45699836      -1.70158511      -0.48284367        0
H        1.16814641      -1.97292757       0.02309030        0
H        0.67596306      -1.06505191      -1.41568521        0
H        2.25371432       0.38264655      -0.17859367        0
H        1.35231444       0.12242750       1.32351224        0
H        0.41101455       1.62686768      -1.16863899        0
H        0.39914580       2.19321361       0.53091659        0
C       -2.51064315       1.73663695       3.08408755        0
O       -3.67056828       1.60071131       2.27115696        0
H       -2.63001424       1.03229909       3.90673993        0
H       -3.58090119       2.22222788       1.53184733        0
H       -1.59089114       1.48607639       2.54177640        0
H       -2.41111112       2.74595976       3.50144421        0
21
Properties=species:S:1:pos:R:3:fragment_id:I:1 config_id=nonwater_environment__prospective_diverse_05__ch3cn__altered_orientation molecule_id=prospective_diverse_05 smiles=O=S1(=O)CCCC1 chemical_role=nan split=prospective_nonwater_environment_transfer regime=altered_orientation source_regime=orientation source_config_id=prospective__prospective_diverse_05__cluster_3water__orientation perturbant=CH3CN n_solute_atoms=15 n_environment_atoms=6 environment_molecule_count=1 source_water_oxygen_index=15 orientation_candidate_index=0 pbc="F F F"
O       -1.87190928       1.00890348       1.35090769        0
S       -1.33947517       0.62250975       0.06087132        0
O       -2.07239471       0.82417850      -1.17166223        0
C       -0.81480000      -1.08317618       0.14737168        0
C        0.63632065      -1.08047239      -0.31977724        0
C        1.25685804       0.20063347       0.23374364        0
C        0.29248937       1.32591556      -0.12363579        0
H       -0.89038910      -1.40408293       1.19042334        0
H       -1.45699836      -1.70158511      -0.48284367        0
H        1.16814641      -1.97292757       0.02309030        0
H        0.67596306      -1.06505191      -1.41568521        0
H        2.25371432       0.38264655      -0.17859367        0
H        1.35231444       0.12242750       1.32351224        0
H        0.41101455       1.62686768      -1.16863899        0
H        0.39914580       2.19321361       0.53091659        0
C       -3.42660599       3.29170638       0.25967569        0
C       -3.56164302       2.35571355       1.37306275        0
N       -3.67056828       1.60071131       2.27115696        0
H       -2.48667844       3.84055132       0.34248220        0
H       -3.43629034       2.75108217      -0.68857709        0
H       -4.25273193       4.00516181       0.26666995        0
