17
Properties=species:S:1:pos:R:3:fragment_id:I:1 config_id=nextgen_prospective__nextgen_prospective_001__cluster_3water__compressed molecule_id=nextgen_prospective_001 smiles=FCCBr split=new_prospective chemical_role=halogen category=cluster_3water motif=compressed regime=compressed conformer_index=0 n_solute_atoms=8 n_waters=3 pbc="F F F"
F       -1.31133397       0.94385320       0.63587208        0
C       -0.77938363      -0.03628425      -0.14418858        0
C        0.68890072      -0.19459710       0.17575128        0
Br       1.70035890       1.32317585      -0.51275218        0
H       -1.32061548      -0.95886012       0.08433457        0
H       -0.95907396       0.22558992      -1.19113413        0
H        1.11162853      -1.08228817      -0.30089582        0
H        0.86951889      -0.22058933       1.25301278        0
O        3.67336454       0.27302644      -0.96513960        1
H        3.24149172       0.73563171      -0.24700726        1
H        3.02225807      -0.35926647      -1.26927423        1
O        6.22595763       0.56935507      -1.68599534        2
H        5.74965661       1.04717900      -1.00698616        2
H        5.58156959      -0.03856882      -2.04852042        2
O        9.02839603       0.63874841      -2.10780654        3
H        8.46774236       1.34169202      -1.77952377        3
H        8.43068416      -0.09287839      -2.26173702        3
17
Properties=species:S:1:pos:R:3:fragment_id:I:1 config_id=nextgen_prospective__nextgen_prospective_001__cluster_3water__cooperative molecule_id=nextgen_prospective_001 smiles=FCCBr split=new_prospective chemical_role=halogen category=cluster_3water motif=cooperative regime=cooperative conformer_index=0 n_solute_atoms=8 n_waters=3 pbc="F F F"
F       -1.31133397       0.94385320       0.63587208        0
C       -0.77938363      -0.03628425      -0.14418858        0
C        0.68890072      -0.19459710       0.17575128        0
Br       1.70035890       1.32317585      -0.51275218        0
H       -1.32061548      -0.95886012       0.08433457        0
H       -0.95907396       0.22558992      -1.19113413        0
H        1.11162853      -1.08228817      -0.30089582        0
H        0.86951889      -0.22058933       1.25301278        0
O       -2.89662130       2.40597433       1.40296879        1
H       -2.00733608       2.60620504       1.11088780        1
H       -2.97436873       1.45725687       1.30235884        1
O       -5.00454214       3.71357510       2.47912112        2
H       -4.18174725       4.08772341       2.16407597        2
H       -4.91385771       2.77277065       2.32780961        2
O       -7.20555468       5.16200956       3.66590986        3
H       -6.37991434       5.51735366       3.33684992        3
H       -7.13871893       4.21934798       3.51374555        3
17
Properties=species:S:1:pos:R:3:fragment_id:I:1 config_id=nextgen_prospective__nextgen_prospective_001__cluster_3water__equilibrium molecule_id=nextgen_prospective_001 smiles=FCCBr split=new_prospective chemical_role=halogen category=cluster_3water motif=equilibrium regime=equilibrium conformer_index=0 n_solute_atoms=8 n_waters=3 pbc="F F F"
F       -1.31133397       0.94385320       0.63587208        0
C       -0.77938363      -0.03628425      -0.14418858        0
C        0.68890072      -0.19459710       0.17575128        0
Br       1.70035890       1.32317585      -0.51275218        0
H       -1.32061548      -0.95886012       0.08433457        0
H       -0.95907396       0.22558992      -1.19113413        0
H        1.11162853      -1.08228817      -0.30089582        0
H        0.86951889      -0.22058933       1.25301278        0
O       -3.29103198      -1.04761936      -1.73756973        1
H       -3.70992730      -1.72943625      -2.26281660        1
H       -3.89139658      -0.90565989      -1.00569426        1
O       -3.57842728       0.64412282       0.19026649        2
H       -4.44916582       1.02385002       0.30796731        2
H       -3.46936187       0.05731478       0.93859322        2
O        4.26031467       2.85474796      -1.42068110        3
H        3.87174648       2.18364160      -0.85955467        3
H        4.96487539       2.40175226      -1.88395310        3
17
Properties=species:S:1:pos:R:3:fragment_id:I:1 config_id=nextgen_prospective__nextgen_prospective_001__cluster_3water__orientation molecule_id=nextgen_prospective_001 smiles=FCCBr split=new_prospective chemical_role=halogen category=cluster_3water motif=orientation regime=orientation conformer_index=0 n_solute_atoms=8 n_waters=3 pbc="F F F"
F       -1.31133397       0.94385320       0.63587208        0
C       -0.77938363      -0.03628425      -0.14418858        0
C        0.68890072      -0.19459710       0.17575128        0
Br       1.70035890       1.32317585      -0.51275218        0
H       -1.32061548      -0.95886012       0.08433457        0
H       -0.95907396       0.22558992      -1.19113413        0
H        1.11162853      -1.08228817      -0.30089582        0
H        0.86951889      -0.22058933       1.25301278        0
O       -3.29103198      -1.04761936      -1.73756973        1
H       -2.99852620      -0.90105087      -2.63711955        1
H       -4.05649540      -0.48144494      -1.63885745        1
O       -3.57842728       0.64412282       0.19026649        2
H       -4.33164872       1.19252505      -0.02915162        2
H       -2.81877595       1.20275771       0.02567983        2
O        4.26031467       2.85474796      -1.42068110        3
H        4.69277552       2.28315461      -0.78625970        3
H        4.50554319       2.49569433      -2.27342685        3
22
Properties=species:S:1:pos:R:3:fragment_id:I:1 config_id=nextgen_prospective__nextgen_prospective_002__cluster_3water__compressed molecule_id=nextgen_prospective_002 smiles=Oc1ccc(Cl)cc1 split=new_prospective chemical_role=halogen category=cluster_3water motif=compressed regime=compressed conformer_index=0 n_solute_atoms=13 n_waters=3 pbc="F F F"
O        2.44191944       0.69004925      -0.09419788        0
C        1.12784685       0.33165045      -0.04612892        0
C        0.74333948      -0.98137721       0.21272572        0
C       -0.61578209      -1.30167554       0.25223410        0
C       -1.57070139      -0.30772234       0.03300794        0
Cl      -3.24380770      -0.70642759       0.08253807        0
C       -1.17890042       1.00527870      -0.22570499        0
C        0.17888724       1.32539553      -0.26520175        0
H        2.98774687      -0.09538465       0.07513658        0
H        1.47862269      -1.76113358       0.38445063        0
H       -0.92415949      -2.32405961       0.45362287        0
H       -1.92073797       1.78029312      -0.39659042        0
H        0.49572649       2.34511348      -0.46589195        0
O        4.49793454      -0.23710484      -1.68124510        1
H        3.86316102       0.45342543      -1.87219630        1
H        4.09042342      -0.75173319      -0.98459296        1
O        7.10281963      -0.39614631      -2.58647130        2
H        6.50673728       0.35049680      -2.64513748        2
H        6.59390207      -1.07532357      -2.14380550        2
O        9.55561594      -0.71307891      -4.02289416        3
H        8.96928219       0.04352008      -4.02448651        3
H        9.13704223      -1.33983103      -3.43280123        3
22
Properties=species:S:1:pos:R:3:fragment_id:I:1 config_id=nextgen_prospective__nextgen_prospective_002__cluster_3water__cooperative molecule_id=nextgen_prospective_002 smiles=Oc1ccc(Cl)cc1 split=new_prospective chemical_role=halogen category=cluster_3water motif=cooperative regime=cooperative conformer_index=0 n_solute_atoms=13 n_waters=3 pbc="F F F"
O        2.44191944       0.69004925      -0.09419788        0
C        1.12784685       0.33165045      -0.04612892        0
C        0.74333948      -0.98137721       0.21272572        0
C       -0.61578209      -1.30167554       0.25223410        0
C       -1.57070139      -0.30772234       0.03300794        0
Cl      -3.24380770      -0.70642759       0.08253807        0
C       -1.17890042       1.00527870      -0.22570499        0
C        0.17888724       1.32539553      -0.26520175        0
H        2.98774687      -0.09538465       0.07513658        0
H        1.47862269      -1.76113358       0.38445063        0
H       -0.92415949      -2.32405961       0.45362287        0
H       -1.92073797       1.78029312      -0.39659042        0
H        0.49572649       2.34511348      -0.46589195        0
O       -3.80809137       3.06350021      -1.86304781        1
H       -2.97493824       3.36035722      -1.49703740        1
H       -3.81281732       2.11812178      -1.71315073        1
O       -5.88905976       4.65632844      -2.73658363        2
H       -5.01122335       4.93190409      -2.47258904        2
H       -5.88416877       3.70508990      -2.63003245        2
O       -7.93725801       6.48856383      -3.52042366        3
H       -7.03202333       6.68862087      -3.28218176        3
H       -8.00266246       5.53722861      -3.43726477        3
22
Properties=species:S:1:pos:R:3:fragment_id:I:1 config_id=nextgen_prospective__nextgen_prospective_002__cluster_3water__equilibrium molecule_id=nextgen_prospective_002 smiles=Oc1ccc(Cl)cc1 split=new_prospective chemical_role=halogen category=cluster_3water motif=equilibrium regime=equilibrium conformer_index=0 n_solute_atoms=13 n_waters=3 pbc="F F F"
O        2.44191944       0.69004925      -0.09419788        0
C        1.12784685       0.33165045      -0.04612892        0
C        0.74333948      -0.98137721       0.21272572        0
C       -0.61578209      -1.30167554       0.25223410        0
C       -1.57070139      -0.30772234       0.03300794        0
Cl      -3.24380770      -0.70642759       0.08253807        0
C       -1.17890042       1.00527870      -0.22570499        0
C        0.17888724       1.32539553      -0.26520175        0
H        2.98774687      -0.09538465       0.07513658        0
H        1.47862269      -1.76113358       0.38445063        0
H       -0.92415949      -2.32405961       0.45362287        0
H       -1.92073797       1.78029312      -0.39659042        0
H        0.49572649       2.34511348      -0.46589195        0
O       -1.05004309      -4.62919473       0.64970110        1
H       -1.71351814      -5.17327978       1.07397006        1
H       -0.52546477      -4.28352337       1.37189272        1
O       -5.40561744      -0.50128543       0.44569251        2
H       -5.15159479      -0.72741922      -0.44905206        2
H       -5.39757486      -1.33523065       0.91548240        2
O        5.59590744      -0.18409882       0.85471228        3
H        5.66553139      -0.32747084      -0.08912500        3
H        5.77298065      -1.04161550       1.24141898        3
22
Properties=species:S:1:pos:R:3:fragment_id:I:1 config_id=nextgen_prospective__nextgen_prospective_002__cluster_3water__orientation molecule_id=nextgen_prospective_002 smiles=Oc1ccc(Cl)cc1 split=new_prospective chemical_role=halogen category=cluster_3water motif=orientation regime=orientation conformer_index=0 n_solute_atoms=13 n_waters=3 pbc="F F F"
O        2.44191944       0.69004925      -0.09419788        0
C        1.12784685       0.33165045      -0.04612892        0
C        0.74333948      -0.98137721       0.21272572        0
C       -0.61578209      -1.30167554       0.25223410        0
C       -1.57070139      -0.30772234       0.03300794        0
Cl      -3.24380770      -0.70642759       0.08253807        0
C       -1.17890042       1.00527870      -0.22570499        0
C        0.17888724       1.32539553      -0.26520175        0
H        2.98774687      -0.09538465       0.07513658        0
H        1.47862269      -1.76113358       0.38445063        0
H       -0.92415949      -2.32405961       0.45362287        0
H       -1.92073797       1.78029312      -0.39659042        0
H        0.49572649       2.34511348      -0.46589195        0
O       -1.05004309      -4.62919473       0.64970110        1
H       -1.44389960      -5.45348727       0.93544696        1
H       -1.68168491      -4.26336083       0.03048708        1
O       -5.40561744      -0.50128543       0.44569251        2
H       -5.26273912       0.41704229       0.67480344        2
H       -4.77855178      -0.98346703       0.98469289        2
O        5.59590744      -0.18409882       0.85471228        3
H        5.62697953      -0.46029942       1.77067057        3
H        6.09407406       0.63297386       0.83340250        3
20
Properties=species:S:1:pos:R:3:fragment_id:I:1 config_id=nextgen_prospective__nextgen_prospective_003__cluster_3water__compressed molecule_id=nextgen_prospective_003 smiles=Brc1ccccn1 split=new_prospective chemical_role=halogen category=cluster_3water motif=compressed regime=compressed conformer_index=0 n_solute_atoms=11 n_waters=3 pbc="F F F"
Br       3.18298370      -0.78278945       0.17021275        0
C        1.32013716      -0.43898521       0.07546896        0
C        0.88603118       0.87714285       0.00063705        0
C       -0.48349610       1.11776374      -0.06848852        0
C       -1.36435325       0.04201013      -0.06042768        0
C       -0.83667516      -1.23679558       0.01682917        0
N        0.48543387      -1.50141912       0.08494202        0
H        1.58986623       1.70194070      -0.00431765        0
H       -0.85942417       2.13533450      -0.12807343        0
H       -2.43668054       0.19530659      -0.11304989        0
H       -1.48382292      -2.10950915       0.02626722        0
O        4.92629294      -2.30551997       0.57147174        1
H        4.06443463      -2.61153435       0.85393819        1
H        4.75519798      -1.46485227       0.14692943        1
O        7.47123388      -3.53840620       0.66106532        2
H        6.61438007      -3.95642867       0.74645035        2
H        7.27407968      -2.60977385       0.53857439        2
O       10.15548250      -4.63667021       0.70457986        3
H        9.32668317      -5.11304783       0.75344580        3
H        9.89990374      -3.71661781       0.63813500        3
20
Properties=species:S:1:pos:R:3:fragment_id:I:1 config_id=nextgen_prospective__nextgen_prospective_003__cluster_3water__cooperative molecule_id=nextgen_prospective_003 smiles=Brc1ccccn1 split=new_prospective chemical_role=halogen category=cluster_3water motif=cooperative regime=cooperative conformer_index=0 n_solute_atoms=11 n_waters=3 pbc="F F F"
Br       3.18298370      -0.78278945       0.17021275        0
C        1.32013716      -0.43898521       0.07546896        0
C        0.88603118       0.87714285       0.00063705        0
C       -0.48349610       1.11776374      -0.06848852        0
C       -1.36435325       0.04201013      -0.06042768        0
C       -0.83667516      -1.23679558       0.01682917        0
N        0.48543387      -1.50141912       0.08494202        0
H        1.58986623       1.70194070      -0.00431765        0
H       -0.85942417       2.13533450      -0.12807343        0
H       -2.43668054       0.19530659      -0.11304989        0
H       -1.48382292      -2.10950915       0.02626722        0
O       -4.59207610      -1.19493694      -1.34187226        1
H       -4.33308889      -0.28684051      -1.18528889        1
H       -3.82512429      -1.70986694      -1.09114558        1
O       -7.18224736      -1.92990854      -2.22447083        2
H       -6.84300873      -1.04759106      -2.07392233        2
H       -6.45030938      -2.50827531      -2.01001685        2
O       -9.64343333      -2.54078010      -3.11357786        3
H       -9.27890475      -1.67106093      -2.94944586        3
H       -8.93475675      -3.14412749      -2.89001293        3
20
Properties=species:S:1:pos:R:3:fragment_id:I:1 config_id=nextgen_prospective__nextgen_prospective_003__cluster_3water__equilibrium molecule_id=nextgen_prospective_003 smiles=Brc1ccccn1 split=new_prospective chemical_role=halogen category=cluster_3water motif=equilibrium regime=equilibrium conformer_index=0 n_solute_atoms=11 n_waters=3 pbc="F F F"
Br       3.18298370      -0.78278945       0.17021275        0
C        1.32013716      -0.43898521       0.07546896        0
C        0.88603118       0.87714285       0.00063705        0
C       -0.48349610       1.11776374      -0.06848852        0
C       -1.36435325       0.04201013      -0.06042768        0
C       -0.83667516      -1.23679558       0.01682917        0
N        0.48543387      -1.50141912       0.08494202        0
H        1.58986623       1.70194070      -0.00431765        0
H       -0.85942417       2.13533450      -0.12807343        0
H       -2.43668054       0.19530659      -0.11304989        0
H       -1.48382292      -2.10950915       0.02626722        0
O        5.94152409      -1.53217858       0.26060102        1
H        6.53948301      -1.67874482      -0.47233506        1
H        5.29298662      -2.23210543       0.18488178        1
O       -2.00770253       3.91443020       0.09827006        2
H       -2.58908840       4.33966988       0.72866163        2
H       -2.53232802       3.83848661      -0.69874468        2
O       -5.69077343       1.13106931       0.60798623        3
H       -5.79119889       1.85209475      -0.01351911        3
H       -4.89227589       0.68306615       0.32883270        3
20
Properties=species:S:1:pos:R:3:fragment_id:I:1 config_id=nextgen_prospective__nextgen_prospective_003__cluster_3water__orientation molecule_id=nextgen_prospective_003 smiles=Brc1ccccn1 split=new_prospective chemical_role=halogen category=cluster_3water motif=orientation regime=orientation conformer_index=0 n_solute_atoms=11 n_waters=3 pbc="F F F"
Br       3.18298370      -0.78278945       0.17021275        0
C        1.32013716      -0.43898521       0.07546896        0
C        0.88603118       0.87714285       0.00063705        0
C       -0.48349610       1.11776374      -0.06848852        0
C       -1.36435325       0.04201013      -0.06042768        0
C       -0.83667516      -1.23679558       0.01682917        0
N        0.48543387      -1.50141912       0.08494202        0
H        1.58986623       1.70194070      -0.00431765        0
H       -0.85942417       2.13533450      -0.12807343        0
H       -2.43668054       0.19530659      -0.11304989        0
H       -1.48382292      -2.10950915       0.02626722        0
O        5.94152409      -1.53217858       0.26060102        1
H        5.02159947      -1.72963964       0.08459058        1
H        5.95284812      -0.59503370       0.45518538        1
O       -2.00770253       3.91443020       0.09827006        2
H       -1.92403763       4.04762174       1.04245862        2
H       -1.56167965       4.66677122      -0.29067521        2
O       -5.69077343       1.13106931       0.60798623        3
H       -5.17349618       1.93258277       0.52904157        3
H       -5.45539979       0.61651922      -0.16406902        3
17
Properties=species:S:1:pos:R:3:fragment_id:I:1 config_id=nextgen_prospective__nextgen_prospective_004__cluster_3water__compressed molecule_id=nextgen_prospective_004 smiles=CCI split=new_prospective chemical_role=halogen category=cluster_3water motif=compressed regime=compressed conformer_index=0 n_solute_atoms=8 n_waters=3 pbc="F F F"
C       -0.76351486      -0.25828938      -0.03502122        0
C        0.59967143       0.38541763       0.15184308        0
I        2.10704478      -0.71616948      -0.87660291        0
H       -1.52741263       0.31714849       0.49786718        0
H       -0.78009580      -1.28111045       0.35627576        0
H       -1.04739118      -0.29456370      -1.09221004        0
H        0.57286426       1.41460553      -0.22171924        0
H        0.83883400       0.43296137       1.21956739        0
O        3.01425486       1.29649848       0.08123307        1
H        2.73342685       0.39054150       0.21011066        1
H        2.19917565       1.78894309      -0.01559675        1
O        5.60498706       2.05998203       0.29828502        2
H        5.25809223       1.28187671      -0.13811838        2
H        4.83152010       2.50791899       0.64082433        2
O        8.31973683       3.20702422       0.34456999        3
H        8.07469135       2.28420774       0.27678873        3
H        7.48554390       3.67383845       0.39395083        3
17
Properties=species:S:1:pos:R:3:fragment_id:I:1 config_id=nextgen_prospective__nextgen_prospective_004__cluster_3water__cooperative molecule_id=nextgen_prospective_004 smiles=CCI split=new_prospective chemical_role=halogen category=cluster_3water motif=cooperative regime=cooperative conformer_index=0 n_solute_atoms=8 n_waters=3 pbc="F F F"
C       -0.76351486      -0.25828938      -0.03502122        0
C        0.59967143       0.38541763       0.15184308        0
I        2.10704478      -0.71616948      -0.87660291        0
H       -1.52741263       0.31714849       0.49786718        0
H       -0.78009580      -1.28111045       0.35627576        0
H       -1.04739118      -0.29456370      -1.09221004        0
H        0.57286426       1.41460553      -0.22171924        0
H        0.83883400       0.43296137       1.21956739        0
O        0.36705401       3.92105605      -0.56812180        1
H        1.14493892       3.42504250      -0.31297976        1
H       -0.33544473       3.27124734      -0.58993914        1
O        0.62958612       6.82988798      -0.75357473        2
H        1.32939902       6.18298537      -0.66407192        2
H       -0.17534276       6.31211505      -0.76882352        2
O        0.93015803       9.58389224      -0.61812248        3
H        1.61825233       8.92216015      -0.68789860        3
H        0.11508399       9.08216662      -0.60556957        3
17
Properties=species:S:1:pos:R:3:fragment_id:I:1 config_id=nextgen_prospective__nextgen_prospective_004__cluster_3water__equilibrium molecule_id=nextgen_prospective_004 smiles=CCI split=new_prospective chemical_role=halogen category=cluster_3water motif=equilibrium regime=equilibrium conformer_index=0 n_solute_atoms=8 n_waters=3 pbc="F F F"
C       -0.76351486      -0.25828938      -0.03502122        0
C        0.59967143       0.38541763       0.15184308        0
I        2.10704478      -0.71616948      -0.87660291        0
H       -1.52741263       0.31714849       0.49786718        0
H       -0.78009580      -1.28111045       0.35627576        0
H       -1.04739118      -0.29456370      -1.09221004        0
H        0.57286426       1.41460553      -0.22171924        0
H        0.83883400       0.43296137       1.21956739        0
O        4.28592387      -1.77177557      -1.76642936        1
H        4.40972334      -1.26874305      -2.57132924        1
H        3.41566298      -2.15984693      -1.85741533        1
O       -3.65147774      -2.31625474       1.31782404        2
H       -2.91570960      -1.72040899       1.17695199        2
H       -3.58545599      -2.56536057       2.23968046        2
O        2.59498804       2.19224969      -0.09875527        3
H        3.46405723       2.26147561       0.29641349        3
H        2.36934942       3.09033582      -0.34116062        3
17
Properties=species:S:1:pos:R:3:fragment_id:I:1 config_id=nextgen_prospective__nextgen_prospective_004__cluster_3water__orientation molecule_id=nextgen_prospective_004 smiles=CCI split=new_prospective chemical_role=halogen category=cluster_3water motif=orientation regime=orientation conformer_index=0 n_solute_atoms=8 n_waters=3 pbc="F F F"
C       -0.76351486      -0.25828938      -0.03502122        0
C        0.59967143       0.38541763       0.15184308        0
I        2.10704478      -0.71616948      -0.87660291        0
H       -1.52741263       0.31714849       0.49786718        0
H       -0.78009580      -1.28111045       0.35627576        0
H       -1.04739118      -0.29456370      -1.09221004        0
H        0.57286426       1.41460553      -0.22171924        0
H        0.83883400       0.43296137       1.21956739        0
O        4.28592387      -1.77177557      -1.76642936        1
H        4.98048057      -2.30503780      -1.37983626        1
H        4.44955795      -1.81099707      -2.70872306        1
O       -3.65147774      -2.31625474       1.31782404        2
H       -2.71101072      -2.39425394       1.47804187        2
H       -3.74153726      -1.51424369       0.80314026        2
O        2.59498804       2.19224969      -0.09875527        3
H        2.51668323       2.92652399      -0.70780490        3
H        1.98503155       1.53557471      -0.43485478        3
18
Properties=species:S:1:pos:R:3:fragment_id:I:1 config_id=nextgen_prospective__nextgen_prospective_005__cluster_3water__compressed molecule_id=nextgen_prospective_005 smiles=NC(=O)C(F)(F)F split=new_prospective chemical_role=halogen category=cluster_3water motif=compressed regime=compressed conformer_index=0 n_solute_atoms=9 n_waters=3 pbc="F F F"
N        1.31403859      -0.49932212      -0.09531473        0
C        0.40132976       0.51803405       0.08407593        0
O        0.81371139       1.66248113       0.27380467        0
C       -1.09172161       0.12048445       0.02950072        0
F       -1.25019194      -1.21832350      -0.19518209        0
F       -1.76672411       0.75570188      -0.96631946        0
F       -1.74861536       0.39174769       1.18954633        0
H        2.29967197      -0.27209684      -0.06522821        0
H        1.02850131      -1.45870675      -0.25488317        0
O       -3.64875791       1.54774562      -1.65760440        1
H       -2.85915440       2.03488338      -1.42211568        1
H       -3.41537630       0.63009011      -1.51734312        1
O       -5.91001245       2.65151255      -2.98412096        2
H       -5.15053964       3.11762311      -2.63458724        2
H       -5.73798537       1.73071687      -2.78721021        2
O       -8.20532965       3.59508657      -4.09384703        3
H       -7.44792093       4.09923718      -3.79653232        3
H       -7.97338397       2.68422568      -3.91283466        3
18
Properties=species:S:1:pos:R:3:fragment_id:I:1 config_id=nextgen_prospective__nextgen_prospective_005__cluster_3water__cooperative molecule_id=nextgen_prospective_005 smiles=NC(=O)C(F)(F)F split=new_prospective chemical_role=halogen category=cluster_3water motif=cooperative regime=cooperative conformer_index=0 n_solute_atoms=9 n_waters=3 pbc="F F F"
N        1.31403859      -0.49932212      -0.09531473        0
C        0.40132976       0.51803405       0.08407593        0
O        0.81371139       1.66248113       0.27380467        0
C       -1.09172161       0.12048445       0.02950072        0
F       -1.25019194      -1.21832350      -0.19518209        0
F       -1.76672411       0.75570188      -0.96631946        0
F       -1.74861536       0.39174769       1.18954633        0
H        2.29967197      -0.27209684      -0.06522821        0
H        1.02850131      -1.45870675      -0.25488317        0
O       -3.90160529       0.85914705       2.37005044        1
H       -3.31048210       1.48317499       1.94886836        1
H       -3.61021589       0.00312408       2.05612572        1
O       -6.33183688       1.42383725       3.54134691        2
H       -5.66017010       2.04386864       3.25734575        2
H       -5.97033400       0.56373789       3.32739225        2
O       -8.66140714       1.89916327       4.98164148        3
H       -8.04098376       2.54389064       4.64159254        3
H       -8.29985012       1.05407240       4.71456512        3
18
Properties=species:S:1:pos:R:3:fragment_id:I:1 config_id=nextgen_prospective__nextgen_prospective_005__cluster_3water__equilibrium molecule_id=nextgen_prospective_005 smiles=NC(=O)C(F)(F)F split=new_prospective chemical_role=halogen category=cluster_3water motif=equilibrium regime=equilibrium conformer_index=0 n_solute_atoms=9 n_waters=3 pbc="F F F"
N        1.31403859      -0.49932212      -0.09531473        0
C        0.40132976       0.51803405       0.08407593        0
O        0.81371139       1.66248113       0.27380467        0
C       -1.09172161       0.12048445       0.02950072        0
F       -1.25019194      -1.21832350      -0.19518209        0
F       -1.76672411       0.75570188      -0.96631946        0
F       -1.74861536       0.39174769       1.18954633        0
H        2.29967197      -0.27209684      -0.06522821        0
H        1.02850131      -1.45870675      -0.25488317        0
O       -3.45877743      -2.55148034      -0.31063865        1
H       -2.86803269      -3.24186077      -0.00959488        1
H       -3.16523464      -2.35554849      -1.20039996        1
O       -4.46270066       0.85923981       3.39920750        2
H       -5.14597664       1.14075671       2.79083754        2
H       -3.85475913       0.35343455       2.85994878        2
O        3.79106287      -1.80424346      -0.22031846        3
H        3.92421476      -2.51725938       0.40426998        3
H        3.48934307      -2.23771702      -1.01862773        3
18
Properties=species:S:1:pos:R:3:fragment_id:I:1 config_id=nextgen_prospective__nextgen_prospective_005__cluster_3water__orientation molecule_id=nextgen_prospective_005 smiles=NC(=O)C(F)(F)F split=new_prospective chemical_role=halogen category=cluster_3water motif=orientation regime=orientation conformer_index=0 n_solute_atoms=9 n_waters=3 pbc="F F F"
N        1.31403859      -0.49932212      -0.09531473        0
C        0.40132976       0.51803405       0.08407593        0
O        0.81371139       1.66248113       0.27380467        0
C       -1.09172161       0.12048445       0.02950072        0
F       -1.25019194      -1.21832350      -0.19518209        0
F       -1.76672411       0.75570188      -0.96631946        0
F       -1.74861536       0.39174769       1.18954633        0
H        2.29967197      -0.27209684      -0.06522821        0
H        1.02850131      -1.45870675      -0.25488317        0
O       -3.45877743      -2.55148034      -0.31063865        1
H       -3.40182701      -2.57774937       0.64450449        1
H       -3.71071693      -3.44046433      -0.56057024        1
O       -4.46270066       0.85923981       3.39920750        2
H       -4.13874196       0.09508557       3.87602078        2
H       -4.25794411       0.67469217       2.48255667        2
O        3.79106287      -1.80424346      -0.22031846        3
H        4.29617629      -2.49082992      -0.65585413        3
H        3.30762239      -1.37684416      -0.92731703        3
18
Properties=species:S:1:pos:R:3:fragment_id:I:1 config_id=nextgen_prospective__nextgen_prospective_006__cluster_3water__compressed molecule_id=nextgen_prospective_006 smiles=OCC(F)F split=new_prospective chemical_role=halogen category=cluster_3water motif=compressed regime=compressed conformer_index=0 n_solute_atoms=9 n_waters=3 pbc="F F F"
O        1.52087588       0.54317473       0.08075594        0
C        0.54749143      -0.48461674      -0.13690585        0
C       -0.87307126      -0.00933277       0.14509720        0
F       -1.12969552       1.09287330      -0.60766389        0
F       -0.99593129       0.36957467       1.44067134        0
H        1.10693027       1.38876938      -0.17709246        0
H        0.63660971      -0.79711437      -1.18136922        0
H        0.80607539      -1.32618665       0.51147300        0
H       -1.61928461      -0.77714157      -0.07496607        0
O        2.14181690      -2.47257359      -1.98600228        1
H        1.36720118      -1.95703489      -2.21055110        1
H        2.32307749      -2.24826059      -1.07328101        1
O        3.75404097      -3.96734560      -3.66615329        2
H        3.00376605      -3.42318180      -3.90532923        2
H        3.82158411      -3.87851528      -2.71548041        2
O        5.65986810      -5.49546454      -4.94932816        3
H        4.83600637      -5.16459830      -5.30711470        3
H        5.67440783      -5.17740503      -4.04663298        3
18
Properties=species:S:1:pos:R:3:fragment_id:I:1 config_id=nextgen_prospective__nextgen_prospective_006__cluster_3water__cooperative molecule_id=nextgen_prospective_006 smiles=OCC(F)F split=new_prospective chemical_role=halogen category=cluster_3water motif=cooperative regime=cooperative conformer_index=0 n_solute_atoms=9 n_waters=3 pbc="F F F"
O        1.52087588       0.54317473       0.08075594        0
C        0.54749143      -0.48461674      -0.13690585        0
C       -0.87307126      -0.00933277       0.14509720        0
F       -1.12969552       1.09287330      -0.60766389        0
F       -0.99593129       0.36957467       1.44067134        0
H        1.10693027       1.38876938      -0.17709246        0
H        0.63660971      -0.79711437      -1.18136922        0
H        0.80607539      -1.32618665       0.51147300        0
H       -1.61928461      -0.77714157      -0.07496607        0
O        3.65223525      -0.60367231       1.38268989        1
H        3.10025917       0.16468179       1.23713498        1
H        3.15237037      -1.33169215       1.01342840        1
O        5.90771887      -1.05288712       2.74782925        2
H        5.28647334      -0.33385450       2.86305910        2
H        5.54075749      -1.57510289       2.03448370        2
O        8.09868942      -1.43399561       4.35951158        3
H        7.52627133      -0.66780804       4.32044790        3
H        7.73634451      -2.03758578       3.71096173        3
18
Properties=species:S:1:pos:R:3:fragment_id:I:1 config_id=nextgen_prospective__nextgen_prospective_006__cluster_3water__equilibrium molecule_id=nextgen_prospective_006 smiles=OCC(F)F split=new_prospective chemical_role=halogen category=cluster_3water motif=equilibrium regime=equilibrium conformer_index=0 n_solute_atoms=9 n_waters=3 pbc="F F F"
O        1.52087588       0.54317473       0.08075594        0
C        0.54749143      -0.48461674      -0.13690585        0
C       -0.87307126      -0.00933277       0.14509720        0
F       -1.12969552       1.09287330      -0.60766389        0
F       -0.99593129       0.36957467       1.44067134        0
H        1.10693027       1.38876938      -0.17709246        0
H        0.63660971      -0.79711437      -1.18136922        0
H        0.80607539      -1.32618665       0.51147300        0
H       -1.61928461      -0.77714157      -0.07496607        0
O       -2.85457723       1.99236129      -3.12094808        1
H       -2.33195344       2.74307726      -3.40294407        1
H       -2.42715640       1.68978531      -2.31970465        1
O       -3.64392023       0.87243908       1.90145135        2
H       -3.93340239      -0.03448778       1.80187438        2
H       -2.75254408       0.80366281       2.24343121        2
O        1.14709754      -0.68841692      -3.25945287        3
H        0.49714979      -0.02185354      -3.48192314        3
H        1.92293412      -0.19053122      -3.00173350        3
18
Properties=species:S:1:pos:R:3:fragment_id:I:1 config_id=nextgen_prospective__nextgen_prospective_006__cluster_3water__orientation molecule_id=nextgen_prospective_006 smiles=OCC(F)F split=new_prospective chemical_role=halogen category=cluster_3water motif=orientation regime=orientation conformer_index=0 n_solute_atoms=9 n_waters=3 pbc="F F F"
O        1.52087588       0.54317473       0.08075594        0
C        0.54749143      -0.48461674      -0.13690585        0
C       -0.87307126      -0.00933277       0.14509720        0
F       -1.12969552       1.09287330      -0.60766389        0
F       -0.99593129       0.36957467       1.44067134        0
H        1.10693027       1.38876938      -0.17709246        0
H        0.63660971      -0.79711437      -1.18136922        0
H        0.80607539      -1.32618665       0.51147300        0
H       -1.61928461      -0.77714157      -0.07496607        0
O       -2.85457723       1.99236129      -3.12094808        1
H       -3.47806918       1.30484044      -2.88684399        1
H       -3.09599435       2.24166105      -4.01302389        1
O       -3.64392023       0.87243908       1.90145135        2
H       -2.75719995       1.22613681       1.83175989        2
H       -4.07132127       1.13375255       1.08580715        2
O        1.14709754      -0.68841692      -3.25945287        3
H        0.20329825      -0.74677024      -3.11089438        3
H        1.53497521      -1.17700754      -2.53346254        3
21
Properties=species:S:1:pos:R:3:fragment_id:I:1 config_id=nextgen_prospective__nextgen_prospective_007__cluster_3water__compressed molecule_id=nextgen_prospective_007 smiles=O=C1NCCN1 split=new_prospective chemical_role=donor_acceptor category=cluster_3water motif=compressed regime=compressed conformer_index=0 n_solute_atoms=12 n_waters=3 pbc="F F F"
O        2.56995315      -0.21151685      -0.05813755        0
C        1.35828319      -0.11179194      -0.03072689        0
N        0.64557887       1.01140696       0.32702084        0
C       -0.77248120       0.79265781       0.25144758        0
C       -0.90213445      -0.65483058      -0.21356444        0
N        0.45627010      -1.10209352      -0.35194650        0
H        1.11716762       1.86221784       0.60184154        0
H       -1.20718702       1.49898432      -0.46131792        0
H       -1.21362953       0.95328930       1.23911499        0
H       -1.41396253      -1.28325371       0.52061391        0
H       -1.40751384      -0.73755934      -1.17981954        0
H        0.76965564      -2.01751028      -0.64452602        0
O       -2.64014815      -2.60458695      -0.09340992        1
H       -2.81515735      -1.66359015      -0.10475186        1
H       -1.68625821      -2.67181176      -0.13591454        1
O       -4.32815085      -4.83185537       0.20018914        2
H       -4.57617677      -3.90761046       0.17813633        2
H       -3.37623901      -4.82734414       0.09981309        2
O       -6.18735899      -6.96152117       0.32426924        3
H       -6.37210067      -6.02237812       0.31365420        3
H       -5.23274420      -7.01879822       0.28350438        3
21
Properties=species:S:1:pos:R:3:fragment_id:I:1 config_id=nextgen_prospective__nextgen_prospective_007__cluster_3water__cooperative molecule_id=nextgen_prospective_007 smiles=O=C1NCCN1 split=new_prospective chemical_role=donor_acceptor category=cluster_3water motif=cooperative regime=cooperative conformer_index=0 n_solute_atoms=12 n_waters=3 pbc="F F F"
O        2.56995315      -0.21151685      -0.05813755        0
C        1.35828319      -0.11179194      -0.03072689        0
N        0.64557887       1.01140696       0.32702084        0
C       -0.77248120       0.79265781       0.25144758        0
C       -0.90213445      -0.65483058      -0.21356444        0
N        0.45627010      -1.10209352      -0.35194650        0
H        1.11716762       1.86221784       0.60184154        0
H       -1.20718702       1.49898432      -0.46131792        0
H       -1.21362953       0.95328930       1.23911499        0
H       -1.41396253      -1.28325371       0.52061391        0
H       -1.40751384      -0.73755934      -1.17981954        0
H        0.76965564      -2.01751028      -0.64452602        0
O       -2.84513033       2.83257398       2.03394158        1
H       -2.03642223       3.07073003       1.58061527        1
H       -2.94181575       1.89364009       1.87492298        1
O       -4.67308492       4.47726294       3.30485116        2
H       -3.83640022       4.72513558       2.91146875        2
H       -4.73594035       3.53314301       3.16021856        2
O       -6.42935615       6.53887144       4.40240338        3
H       -5.54321204       6.64716276       4.05707247        3
H       -6.61126169       5.60390586       4.30763222        3
21
Properties=species:S:1:pos:R:3:fragment_id:I:1 config_id=nextgen_prospective__nextgen_prospective_007__cluster_3water__equilibrium molecule_id=nextgen_prospective_007 smiles=O=C1NCCN1 split=new_prospective chemical_role=donor_acceptor category=cluster_3water motif=equilibrium regime=equilibrium conformer_index=0 n_solute_atoms=12 n_waters=3 pbc="F F F"
O        2.56995315      -0.21151685      -0.05813755        0
C        1.35828319      -0.11179194      -0.03072689        0
N        0.64557887       1.01140696       0.32702084        0
C       -0.77248120       0.79265781       0.25144758        0
C       -0.90213445      -0.65483058      -0.21356444        0
N        0.45627010      -1.10209352      -0.35194650        0
H        1.11716762       1.86221784       0.60184154        0
H       -1.20718702       1.49898432      -0.46131792        0
H       -1.21362953       0.95328930       1.23911499        0
H       -1.41396253      -1.28325371       0.52061391        0
H       -1.40751384      -0.73755934      -1.17981954        0
H        0.76965564      -2.01751028      -0.64452602        0
O       -3.72972080       1.92422100       1.67269978        1
H       -4.33132236       1.68734041       0.96687048        1
H       -2.88685826       2.05116155       1.23715337        1
O        5.22850252      -0.55387087      -0.50265102        2
H        6.11398848      -0.73867491      -0.81569083        2
H        5.09311383       0.37312821      -0.69905479        2
O        2.58190949       3.35668139      -0.68468040        3
H        2.65293848       2.78185163      -1.44675485        3
H        3.45548677       3.34572647      -0.29356076        3
21
Properties=species:S:1:pos:R:3:fragment_id:I:1 config_id=nextgen_prospective__nextgen_prospective_007__cluster_3water__orientation molecule_id=nextgen_prospective_007 smiles=O=C1NCCN1 split=new_prospective chemical_role=donor_acceptor category=cluster_3water motif=orientation regime=orientation conformer_index=0 n_solute_atoms=12 n_waters=3 pbc="F F F"
O        2.56995315      -0.21151685      -0.05813755        0
C        1.35828319      -0.11179194      -0.03072689        0
N        0.64557887       1.01140696       0.32702084        0
C       -0.77248120       0.79265781       0.25144758        0
C       -0.90213445      -0.65483058      -0.21356444        0
N        0.45627010      -1.10209352      -0.35194650        0
H        1.11716762       1.86221784       0.60184154        0
H       -1.20718702       1.49898432      -0.46131792        0
H       -1.21362953       0.95328930       1.23911499        0
H       -1.41396253      -1.28325371       0.52061391        0
H       -1.40751384      -0.73755934      -1.17981954        0
H        0.76965564      -2.01751028      -0.64452602        0
O       -3.72972080       1.92422100       1.67269978        1
H       -3.13456709       2.20841120       0.97897086        1
H       -3.85726692       2.70353289       2.21365894        1
O        5.22850252      -0.55387087      -0.50265102        2
H        4.98526860      -0.18379529      -1.35124583        2
H        6.14033752      -0.82408610      -0.61115216        2
O        2.58190949       3.35668139      -0.68468040        3
H        2.84421803       2.44779305      -0.53857070        3
H        3.22701725       3.87324165      -0.20173803        3
18
Properties=species:S:1:pos:R:3:fragment_id:I:1 config_id=nextgen_prospective__nextgen_prospective_008__cluster_3water__compressed molecule_id=nextgen_prospective_008 smiles=CNN split=new_prospective chemical_role=donor_acceptor category=cluster_3water motif=compressed regime=compressed conformer_index=0 n_solute_atoms=9 n_waters=3 pbc="F F F"
C        0.92343759      -0.28041143       0.04087278        0
N       -0.05714370       0.79251093       0.18358756        0
N       -1.39485817       0.26821874       0.08660173        0
H        0.79508416      -1.04140637       0.81806812        0
H        1.93160262       0.13221251       0.14670193        0
H        0.85545663      -0.75819629      -0.94232763        0
H        0.11611979       1.51190922      -0.52604153        0
H       -1.53011962      -0.34321985      -0.72212035        0
H       -1.63957928      -0.28161746       0.91465738        0
O       -1.37653972       2.82413602       0.56263485        1
H       -0.43407982       2.75776465       0.40902489        1
H       -1.68846832       1.91960617       0.53510043        1
O       -2.78002955       5.12102372       1.05868139        2
H       -1.84438963       5.03394141       0.87640018        2
H       -3.11482219       4.22478667       1.02860038        2
O       -4.31824883       7.33094710       1.39446157        3
H       -3.36962270       7.29028768       1.27327115        3
H       -4.60260873       6.41727089       1.37064833        3
18
Properties=species:S:1:pos:R:3:fragment_id:I:1 config_id=nextgen_prospective__nextgen_prospective_008__cluster_3water__cooperative molecule_id=nextgen_prospective_008 smiles=CNN split=new_prospective chemical_role=donor_acceptor category=cluster_3water motif=cooperative regime=cooperative conformer_index=0 n_solute_atoms=9 n_waters=3 pbc="F F F"
C        0.92343759      -0.28041143       0.04087278        0
N       -0.05714370       0.79251093       0.18358756        0
N       -1.39485817       0.26821874       0.08660173        0
H        0.79508416      -1.04140637       0.81806812        0
H        1.93160262       0.13221251       0.14670193        0
H        0.85545663      -0.75819629      -0.94232763        0
H        0.11611979       1.51190922      -0.52604153        0
H       -1.53011962      -0.34321985      -0.72212035        0
H       -1.63957928      -0.28161746       0.91465738        0
O        4.64441009      -0.13503412       0.46349804        1
H        4.09207158       0.43957981      -0.06657067        1
H        4.03334601      -0.75510186       0.86142836        1
O        7.25020422      -0.59169752       0.86890316        2
H        6.55061977      -0.57026323       1.52186104        2
H        6.80893163      -0.41319750       0.03845263        2
O       10.00441197      -0.67425275       0.82745691        3
H        9.39618270      -1.10855185       0.22939898        3
H        9.44153519      -0.20485067       1.44313805        3
18
Properties=species:S:1:pos:R:3:fragment_id:I:1 config_id=nextgen_prospective__nextgen_prospective_008__cluster_3water__equilibrium molecule_id=nextgen_prospective_008 smiles=CNN split=new_prospective chemical_role=donor_acceptor category=cluster_3water motif=equilibrium regime=equilibrium conformer_index=0 n_solute_atoms=9 n_waters=3 pbc="F F F"
C        0.92343759      -0.28041143       0.04087278        0
N       -0.05714370       0.79251093       0.18358756        0
N       -1.39485817       0.26821874       0.08660173        0
H        0.79508416      -1.04140637       0.81806812        0
H        1.93160262       0.13221251       0.14670193        0
H        0.85545663      -0.75819629      -0.94232763        0
H        0.11611979       1.51190922      -0.52604153        0
H       -1.53011962      -0.34321985      -0.72212035        0
H       -1.63957928      -0.28161746       0.91465738        0
O       -4.29271701       1.04639781       0.47863717        1
H       -3.48343530       0.68496200       0.11716918        1
H       -4.32271230       1.94452534       0.14894175        1
O       -1.78700591       3.22238483       0.64136855        2
H       -0.97327977       3.64820808       0.37163505        2
H       -2.00988899       3.63683623       1.47490619        2
O        3.98695746      -1.73837484       0.68998880        3
H        3.17712805      -1.58275319       1.17598269        3
H        4.01632348      -2.68759608       0.57020351        3
18
Properties=species:S:1:pos:R:3:fragment_id:I:1 config_id=nextgen_prospective__nextgen_prospective_008__cluster_3water__orientation molecule_id=nextgen_prospective_008 smiles=CNN split=new_prospective chemical_role=donor_acceptor category=cluster_3water motif=orientation regime=orientation conformer_index=0 n_solute_atoms=9 n_waters=3 pbc="F F F"
C        0.92343759      -0.28041143       0.04087278        0
N       -0.05714370       0.79251093       0.18358756        0
N       -1.39485817       0.26821874       0.08660173        0
H        0.79508416      -1.04140637       0.81806812        0
H        1.93160262       0.13221251       0.14670193        0
H        0.85545663      -0.75819629      -0.94232763        0
H        0.11611979       1.51190922      -0.52604153        0
H       -1.53011962      -0.34321985      -0.72212035        0
H       -1.63957928      -0.28161746       0.91465738        0
O       -4.29271701       1.04639781       0.47863717        1
H       -4.82592120       0.72006588      -0.24623013        1
H       -4.91367390       1.50150719       1.04742521        1
O       -1.78700591       3.22238483       0.64136855        2
H       -1.67035876       3.23011260      -0.30866596        2
H       -2.71503788       3.41791805       0.77081069        2
O        3.98695746      -1.73837484       0.68998880        3
H        4.11806341      -1.73706711       1.63816672        3
H        4.81976934      -1.43080326       0.33213975        3
24
Properties=species:S:1:pos:R:3:fragment_id:I:1 config_id=nextgen_prospective__nextgen_prospective_009__cluster_3water__compressed molecule_id=nextgen_prospective_009 smiles=NCC(O)CO split=new_prospective chemical_role=donor_acceptor category=cluster_3water motif=compressed regime=compressed conformer_index=0 n_solute_atoms=15 n_waters=3 pbc="F F F"
N        2.03336084       0.04150126       0.83796301        0
C        0.73913577       0.57561831       0.37472814        0
C       -0.13589599      -0.57146199      -0.16211322        0
O       -0.19124253      -1.61013337       0.82351358        0
C       -1.55369140      -0.10777853      -0.49398294        0
O       -1.53931967       0.90183632      -1.49637495        0
H        2.58573770       0.81518245       1.21090468        0
H        2.55541692      -0.29835998       0.02812056        0
H        0.24989766       1.04623406       1.23469606        0
H        0.90308197       1.34071106      -0.39081474        0
H        0.33343166      -0.98851972      -1.06137401        0
H        0.69163721      -1.57923272       1.25027441        0
H       -2.05278574       0.28506706       0.39885586        0
H       -2.14934834      -0.95416829      -0.85348706        0
H       -2.46941605       1.10350409      -1.70090937        0
O       -4.39673832      -0.49421071      -0.99528880        1
H       -3.92528485       0.33372812      -0.90319774        1
H       -3.72443026      -1.16668735      -0.88570385        1
O       -7.24844240      -0.58292789      -1.52701753        2
H       -6.69589505       0.19157540      -1.42181336        2
H       -6.64961687      -1.32161171      -1.41753672        2
O      -10.10974263      -0.60871609      -2.00300821        3
H       -9.53855500       0.15341274      -1.90742491        3
H       -9.52509608      -1.36042768      -1.90631309        3
24
Properties=species:S:1:pos:R:3:fragment_id:I:1 config_id=nextgen_prospective__nextgen_prospective_009__cluster_3water__cooperative molecule_id=nextgen_prospective_009 smiles=NCC(O)CO split=new_prospective chemical_role=donor_acceptor category=cluster_3water motif=cooperative regime=cooperative conformer_index=0 n_solute_atoms=15 n_waters=3 pbc="F F F"
N        2.03336084       0.04150126       0.83796301        0
C        0.73913577       0.57561831       0.37472814        0
C       -0.13589599      -0.57146199      -0.16211322        0
O       -0.19124253      -1.61013337       0.82351358        0
C       -1.55369140      -0.10777853      -0.49398294        0
O       -1.53931967       0.90183632      -1.49637495        0
H        2.58573770       0.81518245       1.21090468        0
H        2.55541692      -0.29835998       0.02812056        0
H        0.24989766       1.04623406       1.23469606        0
H        0.90308197       1.34071106      -0.39081474        0
H        0.33343166      -0.98851972      -1.06137401        0
H        0.69163721      -1.57923272       1.25027441        0
H       -2.05278574       0.28506706       0.39885586        0
H       -2.14934834      -0.95416829      -0.85348706        0
H       -2.46941605       1.10350409      -1.70090937        0
O        4.97343308       0.09671644       2.07026229        1
H        4.44628388       0.84060544       1.77875808        1
H        4.42006654      -0.66746488       1.90888008        1
O        7.76212945      -0.29763398       2.75725269        2
H        7.09557526       0.17094596       3.25961730        2
H        7.30150972      -0.60681990       1.97721079        2
O       10.24368544      -0.30777918       3.71198166        3
H        9.69399157       0.45124139       3.51715801        3
H        9.69976797      -1.06232881       3.48606025        3
24
Properties=species:S:1:pos:R:3:fragment_id:I:1 config_id=nextgen_prospective__nextgen_prospective_009__cluster_3water__equilibrium molecule_id=nextgen_prospective_009 smiles=NCC(O)CO split=new_prospective chemical_role=donor_acceptor category=cluster_3water motif=equilibrium regime=equilibrium conformer_index=0 n_solute_atoms=15 n_waters=3 pbc="F F F"
N        2.03336084       0.04150126       0.83796301        0
C        0.73913577       0.57561831       0.37472814        0
C       -0.13589599      -0.57146199      -0.16211322        0
O       -0.19124253      -1.61013337       0.82351358        0
C       -1.55369140      -0.10777853      -0.49398294        0
O       -1.53931967       0.90183632      -1.49637495        0
H        2.58573770       0.81518245       1.21090468        0
H        2.55541692      -0.29835998       0.02812056        0
H        0.24989766       1.04623406       1.23469606        0
H        0.90308197       1.34071106      -0.39081474        0
H        0.33343166      -0.98851972      -1.06137401        0
H        0.69163721      -1.57923272       1.25027441        0
H       -2.05278574       0.28506706       0.39885586        0
H       -2.14934834      -0.95416829      -0.85348706        0
H       -2.46941605       1.10350409      -1.70090937        0
O       -4.62559556       2.83348351      -2.96562212        1
H       -5.38725966       3.41164600      -3.00837475        1
H       -4.08041893       3.20563090      -2.27242619        1
O        0.82429660      -3.36774686       0.04689715        2
H        0.90179533      -4.00729794       0.75485209        2
H        1.13275767      -3.83235443      -0.73106391        2
O       -4.82593660      -1.28251613      -1.23458061        3
H       -5.04450800      -2.05379391      -1.75763793        3
H       -5.52394323      -1.22961798      -0.58172506        3
24
Properties=species:S:1:pos:R:3:fragment_id:I:1 config_id=nextgen_prospective__nextgen_prospective_009__cluster_3water__orientation molecule_id=nextgen_prospective_009 smiles=NCC(O)CO split=new_prospective chemical_role=donor_acceptor category=cluster_3water motif=orientation regime=orientation conformer_index=0 n_solute_atoms=15 n_waters=3 pbc="F F F"
N        2.03336084       0.04150126       0.83796301        0
C        0.73913577       0.57561831       0.37472814        0
C       -0.13589599      -0.57146199      -0.16211322        0
O       -0.19124253      -1.61013337       0.82351358        0
C       -1.55369140      -0.10777853      -0.49398294        0
O       -1.53931967       0.90183632      -1.49637495        0
H        2.58573770       0.81518245       1.21090468        0
H        2.55541692      -0.29835998       0.02812056        0
H        0.24989766       1.04623406       1.23469606        0
H        0.90308197       1.34071106      -0.39081474        0
H        0.33343166      -0.98851972      -1.06137401        0
H        0.69163721      -1.57923272       1.25027441        0
H       -2.05278574       0.28506706       0.39885586        0
H       -2.14934834      -0.95416829      -0.85348706        0
H       -2.46941605       1.10350409      -1.70090937        0
O       -4.62559556       2.83348351      -2.96562212        1
H       -4.01918414       2.96247656      -3.69490795        1
H       -5.46359312       2.63359209      -3.38279756        1
O        0.82429660      -3.36774686       0.04689715        2
H        0.95553136      -2.49121102      -0.31461940        2
H        0.11611078      -3.74040138      -0.47830119        2
O       -4.82593660      -1.28251613      -1.23458061        3
H       -5.29960142      -2.10332484      -1.36928971        3
H       -3.97687059      -1.55032061      -0.88301338        3
22
Properties=species:S:1:pos:R:3:fragment_id:I:1 config_id=nextgen_prospective__nextgen_prospective_010__cluster_3water__compressed molecule_id=nextgen_prospective_010 smiles=Nc1ccccn1 split=new_prospective chemical_role=donor_acceptor category=cluster_3water motif=compressed regime=compressed conformer_index=0 n_solute_atoms=13 n_waters=3 pbc="F F F"
N        2.26732958      -0.21671249      -0.40885473        0
C        0.91451971      -0.15290521      -0.14919338        0
C        0.28806253       1.06611966       0.07064944        0
C       -1.08684015       1.09040239       0.29219716        0
C       -1.79534689      -0.10286846       0.27632493        0
C       -1.09179332      -1.26961057       0.03394530        0
N        0.24192497      -1.31576666      -0.18247528        0
H        2.58374061      -1.16475556      -0.56997443        0
H        2.88076620       0.39977415       0.10032818        0
H        0.85722445       1.98866590       0.06222116        0
H       -1.59701253       2.03263341       0.46770661        0
H       -2.86625874      -0.12407811       0.44131364        0
H       -1.59631643      -2.23089843       0.00346744        0
O       -4.10785830      -2.05682920       0.67096348        1
H       -4.14853559      -1.10133497       0.63086386        1
H       -3.17965027      -2.26240270       0.55960272        1
O       -6.71197719      -2.64633062       1.49205531        2
H       -6.32553773      -1.78318631       1.34414217        2
H       -6.00605487      -3.26219404       1.29554127        2
O       -9.23843510      -3.57772260       2.34038380        3
H       -8.96385135      -2.67096091       2.20393293        3
H       -8.46439580      -4.09790389       2.12473033        3
22
Properties=species:S:1:pos:R:3:fragment_id:I:1 config_id=nextgen_prospective__nextgen_prospective_010__cluster_3water__cooperative molecule_id=nextgen_prospective_010 smiles=Nc1ccccn1 split=new_prospective chemical_role=donor_acceptor category=cluster_3water motif=cooperative regime=cooperative conformer_index=0 n_solute_atoms=13 n_waters=3 pbc="F F F"
N        2.26732958      -0.21671249      -0.40885473        0
C        0.91451971      -0.15290521      -0.14919338        0
C        0.28806253       1.06611966       0.07064944        0
C       -1.08684015       1.09040239       0.29219716        0
C       -1.79534689      -0.10286846       0.27632493        0
C       -1.09179332      -1.26961057       0.03394530        0
N        0.24192497      -1.31576666      -0.18247528        0
H        2.58374061      -1.16475556      -0.56997443        0
H        2.88076620       0.39977415       0.10032818        0
H        0.85722445       1.98866590       0.06222116        0
H       -1.59701253       2.03263341       0.46770661        0
H       -2.86625874      -0.12407811       0.44131364        0
H       -1.59631643      -2.23089843       0.00346744        0
O        2.73332859       3.27024118      -0.62306534        1
H        2.80340865       2.45404707      -0.12794130        1
H        1.81158538       3.31876050      -0.87657505        1
O        5.09955895       4.96035029      -0.77880911        2
H        5.06281320       4.01677958      -0.62210588        2
H        4.18415482       5.22383625      -0.87284244        2
O        7.04263037       6.84482748      -0.97292758        3
H        7.14877281       5.90963606      -0.79862142        3
H        6.09749445       6.96632566      -1.06341585        3
22
Properties=species:S:1:pos:R:3:fragment_id:I:1 config_id=nextgen_prospective__nextgen_prospective_010__cluster_3water__equilibrium molecule_id=nextgen_prospective_010 smiles=Nc1ccccn1 split=new_prospective chemical_role=donor_acceptor category=cluster_3water motif=equilibrium regime=equilibrium conformer_index=0 n_solute_atoms=13 n_waters=3 pbc="F F F"
N        2.26732958      -0.21671249      -0.40885473        0
C        0.91451971      -0.15290521      -0.14919338        0
C        0.28806253       1.06611966       0.07064944        0
C       -1.08684015       1.09040239       0.29219716        0
C       -1.79534689      -0.10286846       0.27632493        0
C       -1.09179332      -1.26961057       0.03394530        0
N        0.24192497      -1.31576666      -0.18247528        0
H        2.58374061      -1.16475556      -0.56997443        0
H        2.88076620       0.39977415       0.10032818        0
H        0.85722445       1.98866590       0.06222116        0
H       -1.59701253       2.03263341       0.46770661        0
H       -2.86625874      -0.12407811       0.44131364        0
H       -1.59631643      -2.23089843       0.00346744        0
O       -2.72874059      -3.76399707       0.53036371        1
H       -3.44924400      -4.39410233       0.52175899        1
H       -2.03978508      -4.19414325       1.03686781        1
O        5.60668838      -0.54696211      -0.67000021        2
H        4.86468812      -1.12928683      -0.83298906        2
H        6.35622511      -1.13447342      -0.57378702        2
O       -5.09508420       2.06371058      -0.00831356        3
H       -4.16801479       1.95871711       0.20558018        3
H       -5.30933282       1.29198231      -0.53249371        3
22
Properties=species:S:1:pos:R:3:fragment_id:I:1 config_id=nextgen_prospective__nextgen_prospective_010__cluster_3water__orientation molecule_id=nextgen_prospective_010 smiles=Nc1ccccn1 split=new_prospective chemical_role=donor_acceptor category=cluster_3water motif=orientation regime=orientation conformer_index=0 n_solute_atoms=13 n_waters=3 pbc="F F F"
N        2.26732958      -0.21671249      -0.40885473        0
C        0.91451971      -0.15290521      -0.14919338        0
C        0.28806253       1.06611966       0.07064944        0
C       -1.08684015       1.09040239       0.29219716        0
C       -1.79534689      -0.10286846       0.27632493        0
C       -1.09179332      -1.26961057       0.03394530        0
N        0.24192497      -1.31576666      -0.18247528        0
H        2.58374061      -1.16475556      -0.56997443        0
H        2.88076620       0.39977415       0.10032818        0
H        0.85722445       1.98866590       0.06222116        0
H       -1.59701253       2.03263341       0.46770661        0
H       -2.86625874      -0.12407811       0.44131364        0
H       -1.59631643      -2.23089843       0.00346744        0
O       -2.72874059      -3.76399707       0.53036371        1
H       -3.10768725      -4.59239068       0.23643294        1
H       -3.28440768      -3.49161550       1.26061997        1
O        5.60668838      -0.54696211      -0.67000021        2
H        5.65904138      -0.90063986      -1.55792084        2
H        4.86185624      -0.99999240      -0.27475284        2
O       -5.09508420       2.06371058      -0.00831356        3
H       -5.55234758       2.54580746       0.68068908        3
H       -4.20353132       2.41177368       0.00643036        3
23
Properties=species:S:1:pos:R:3:fragment_id:I:1 config_id=nextgen_prospective__nextgen_prospective_011__cluster_3water__compressed molecule_id=nextgen_prospective_011 smiles=O=C1COCCN1 split=new_prospective chemical_role=donor_acceptor category=cluster_3water motif=compressed regime=compressed conformer_index=0 n_solute_atoms=14 n_waters=3 pbc="F F F"
O        2.20547630       1.50131923      -0.13205223        0
C        1.21348701       0.78699639      -0.01513345        0
C        1.28711846      -0.69045317       0.41361704        0
O        0.07126689      -1.33151713       0.79160388        0
C       -0.98074187      -0.99730694      -0.11849061        0
C       -1.23569283       0.50621920      -0.06092971        0
N       -0.03357058       1.26352714      -0.33349723        0
H        1.72834278      -1.25274410      -0.41735616        0
H        1.97019446      -0.75756114       1.26633482        0
H       -1.87847377      -1.54535816       0.18311932        0
H       -0.70504081      -1.32279369      -1.12862104        0
H       -2.00048390       0.80633915      -0.78274154        0
H       -1.56253660       0.79643524       0.94335591        0
H       -0.07934554       2.23689795      -0.60920898        0
O       -3.78551295       1.62510838      -0.64988858        1
H       -2.96304503       2.09002630      -0.49616908        1
H       -3.55820274       0.69953624      -0.56112973        1
O       -6.42750773       2.73614514      -0.69828458        2
H       -5.59412592       3.20683730      -0.68581537        2
H       -6.18090186       1.81128629      -0.69097060        2
O       -9.01077839       3.82930316      -0.68926594        3
H       -8.17622990       4.29808349      -0.69164336        3
H       -8.76621103       2.90387531      -0.69065589        3
23
Properties=species:S:1:pos:R:3:fragment_id:I:1 config_id=nextgen_prospective__nextgen_prospective_011__cluster_3water__cooperative molecule_id=nextgen_prospective_011 smiles=O=C1COCCN1 split=new_prospective chemical_role=donor_acceptor category=cluster_3water motif=cooperative regime=cooperative conformer_index=0 n_solute_atoms=14 n_waters=3 pbc="F F F"
O        2.20547630       1.50131923      -0.13205223        0
C        1.21348701       0.78699639      -0.01513345        0
C        1.28711846      -0.69045317       0.41361704        0
O        0.07126689      -1.33151713       0.79160388        0
C       -0.98074187      -0.99730694      -0.11849061        0
C       -1.23569283       0.50621920      -0.06092971        0
N       -0.03357058       1.26352714      -0.33349723        0
H        1.72834278      -1.25274410      -0.41735616        0
H        1.97019446      -0.75756114       1.26633482        0
H       -1.87847377      -1.54535816       0.18311932        0
H       -0.70504081      -1.32279369      -1.12862104        0
H       -2.00048390       0.80633915      -0.78274154        0
H       -1.56253660       0.79643524       0.94335591        0
H       -0.07934554       2.23689795      -0.60920898        0
O        4.48567097      -1.88099347       0.74905141        1
H        3.67644135      -2.27600784       1.07361713        1
H        4.20200581      -1.07919031       0.30987308        1
O        7.21283585      -2.94845428       0.86894821        2
H        6.39204423      -3.42116679       1.00706348        2
H        6.94338546      -2.04900166       0.68290166        2
O        9.77369445      -4.32144771       1.31212483        3
H        8.90966381      -4.57361252       1.63784833        3
H        9.61682953      -3.52193410       0.80972736        3
23
Properties=species:S:1:pos:R:3:fragment_id:I:1 config_id=nextgen_prospective__nextgen_prospective_011__cluster_3water__equilibrium molecule_id=nextgen_prospective_011 smiles=O=C1COCCN1 split=new_prospective chemical_role=donor_acceptor category=cluster_3water motif=equilibrium regime=equilibrium conformer_index=0 n_solute_atoms=14 n_waters=3 pbc="F F F"
O        2.20547630       1.50131923      -0.13205223        0
C        1.21348701       0.78699639      -0.01513345        0
C        1.28711846      -0.69045317       0.41361704        0
O        0.07126689      -1.33151713       0.79160388        0
C       -0.98074187      -0.99730694      -0.11849061        0
C       -1.23569283       0.50621920      -0.06092971        0
N       -0.03357058       1.26352714      -0.33349723        0
H        1.72834278      -1.25274410      -0.41735616        0
H        1.97019446      -0.75756114       1.26633482        0
H       -1.87847377      -1.54535816       0.18311932        0
H       -0.70504081      -1.32279369      -1.12862104        0
H       -2.00048390       0.80633915      -0.78274154        0
H       -1.56253660       0.79643524       0.94335591        0
H       -0.07934554       2.23689795      -0.60920898        0
O       -3.02613773      -1.60829709      -1.62029087        1
H       -3.70540406      -2.08573974      -1.14397417        1
H       -2.35256158      -2.26433291      -1.79957839        1
O       -0.06491035       5.41934170      -1.53515982        2
H        0.39832098       5.93972708      -0.87876997        2
H        0.41380156       4.59103135      -1.56628388        2
O        4.13964234       2.76339938      -0.44319173        3
H        4.19701177       1.83562543      -0.21477086        3
H        3.84125865       3.19027434       0.35991273        3
23
Properties=species:S:1:pos:R:3:fragment_id:I:1 config_id=nextgen_prospective__nextgen_prospective_011__cluster_3water__orientation molecule_id=nextgen_prospective_011 smiles=O=C1COCCN1 split=new_prospective chemical_role=donor_acceptor category=cluster_3water motif=orientation regime=orientation conformer_index=0 n_solute_atoms=14 n_waters=3 pbc="F F F"
O        2.20547630       1.50131923      -0.13205223        0
C        1.21348701       0.78699639      -0.01513345        0
C        1.28711846      -0.69045317       0.41361704        0
O        0.07126689      -1.33151713       0.79160388        0
C       -0.98074187      -0.99730694      -0.11849061        0
C       -1.23569283       0.50621920      -0.06092971        0
N       -0.03357058       1.26352714      -0.33349723        0
H        1.72834278      -1.25274410      -0.41735616        0
H        1.97019446      -0.75756114       1.26633482        0
H       -1.87847377      -1.54535816       0.18311932        0
H       -0.70504081      -1.32279369      -1.12862104        0
H       -2.00048390       0.80633915      -0.78274154        0
H       -1.56253660       0.79643524       0.94335591        0
H       -0.07934554       2.23689795      -0.60920898        0
O       -3.02613773      -1.60829709      -1.62029087        1
H       -3.84031948      -1.98728355      -1.28906712        1
H       -3.09645764      -1.68285357      -2.57198845        1
O       -0.06491035       5.41934170      -1.53515982        2
H        0.41373007       5.89833858      -2.21169302        2
H       -0.44745611       6.10148993      -0.98328630        2
O        4.13964234       2.76339938      -0.44319173        3
H        4.27214138       2.34079607       0.40538490        3
H        3.59191974       2.15045485      -0.93363114        3
23
Properties=species:S:1:pos:R:3:fragment_id:I:1 config_id=nextgen_prospective__nextgen_prospective_012__cluster_3water__compressed molecule_id=nextgen_prospective_012 smiles=CC(O)CN split=new_prospective chemical_role=donor_acceptor category=cluster_3water motif=compressed regime=compressed conformer_index=0 n_solute_atoms=14 n_waters=3 pbc="F F F"
C        1.64458538      -0.41850350      -0.15755624        0
C        0.30595061       0.29752750      -0.26153838        0
O        0.34810216       1.47319555       0.55635535        0
C       -0.84726376      -0.60030393       0.21946797        0
N       -2.13392176       0.09128104       0.07987381        0
H        1.65882999      -1.32548881      -0.76936948        0
H        1.86444450      -0.69025532       0.88074095        0
H        2.45635097       0.23799368      -0.48887258        0
H        0.13087978       0.61122914      -1.29739835        0
H        1.00552919       2.07013166       0.15955599        0
H       -0.87677589      -1.53327869      -0.35221667        0
H       -0.70597729      -0.84708655       1.27809896        0
H       -2.01848168       1.01974822       0.49633604        0
H       -2.83225220      -0.38619002       0.64677656        0
O        3.78220069      -1.78646642      -1.19228355        1
H        2.94742156      -1.59409224      -1.61932902        1
H        3.70305604      -1.39397679      -0.32284704        1
O        6.44075215      -2.90275249      -1.56350777        2
H        5.61433042      -3.22569365      -1.92262887        2
H        6.19562775      -2.12988510      -1.05476239        2
O        9.06162288      -3.86111964      -2.16391525        3
H        8.26954275      -3.95016914      -2.69392571        3
H        8.77782614      -3.37865698      -1.38743535        3
23
Properties=species:S:1:pos:R:3:fragment_id:I:1 config_id=nextgen_prospective__nextgen_prospective_012__cluster_3water__cooperative molecule_id=nextgen_prospective_012 smiles=CC(O)CN split=new_prospective chemical_role=donor_acceptor category=cluster_3water motif=cooperative regime=cooperative conformer_index=0 n_solute_atoms=14 n_waters=3 pbc="F F F"
C        1.64458538      -0.41850350      -0.15755624        0
C        0.30595061       0.29752750      -0.26153838        0
O        0.34810216       1.47319555       0.55635535        0
C       -0.84726376      -0.60030393       0.21946797        0
N       -2.13392176       0.09128104       0.07987381        0
H        1.65882999      -1.32548881      -0.76936948        0
H        1.86444450      -0.69025532       0.88074095        0
H        2.45635097       0.23799368      -0.48887258        0
H        0.13087978       0.61122914      -1.29739835        0
H        1.00552919       2.07013166       0.15955599        0
H       -0.87677589      -1.53327869      -0.35221667        0
H       -0.70597729      -0.84708655       1.27809896        0
H       -2.01848168       1.01974822       0.49633604        0
H       -2.83225220      -0.38619002       0.64677656        0
O        5.15771927      -0.29497078      -1.15230130        1
H        4.61991684       0.41961717      -0.81117897        1
H        4.56872634      -1.04918036      -1.17437114        1
O        7.85732101      -0.06562126      -1.77840850        2
H        7.35096388       0.46651238      -1.16467559        2
H        7.22610014      -0.69439988      -2.12830777        2
O       10.40263711       0.06474498      -2.65331879        3
H        9.88584318       0.76137914      -2.24852661        3
H        9.81260098      -0.68857891      -2.67765646        3
23
Properties=species:S:1:pos:R:3:fragment_id:I:1 config_id=nextgen_prospective__nextgen_prospective_012__cluster_3water__equilibrium molecule_id=nextgen_prospective_012 smiles=CC(O)CN split=new_prospective chemical_role=donor_acceptor category=cluster_3water motif=equilibrium regime=equilibrium conformer_index=0 n_solute_atoms=14 n_waters=3 pbc="F F F"
C        1.64458538      -0.41850350      -0.15755624        0
C        0.30595061       0.29752750      -0.26153838        0
O        0.34810216       1.47319555       0.55635535        0
C       -0.84726376      -0.60030393       0.21946797        0
N       -2.13392176       0.09128104       0.07987381        0
H        1.65882999      -1.32548881      -0.76936948        0
H        1.86444450      -0.69025532       0.88074095        0
H        2.45635097       0.23799368      -0.48887258        0
H        0.13087978       0.61122914      -1.29739835        0
H        1.00552919       2.07013166       0.15955599        0
H       -0.87677589      -1.53327869      -0.35221667        0
H       -0.70597729      -0.84708655       1.27809896        0
H       -2.01848168       1.01974822       0.49633604        0
H       -2.83225220      -0.38619002       0.64677656        0
O       -0.05483707       3.48133814       2.30745788        1
H        0.11297091       3.42810090       3.24832881        1
H        0.79156638       3.29367820       1.90172794        1
O       -1.45622294       4.13621486      -0.23956430        2
H       -1.95997656       4.73944458       0.30685864        2
H       -1.46363278       3.31057370       0.24468109        2
O        0.12829549      -2.05936568      -3.50073785        3
H        0.07803700      -1.91924231      -4.44629132        3
H       -0.33752000      -1.31358016      -3.12251607        3
23
Properties=species:S:1:pos:R:3:fragment_id:I:1 config_id=nextgen_prospective__nextgen_prospective_012__cluster_3water__orientation molecule_id=nextgen_prospective_012 smiles=CC(O)CN split=new_prospective chemical_role=donor_acceptor category=cluster_3water motif=orientation regime=orientation conformer_index=0 n_solute_atoms=14 n_waters=3 pbc="F F F"
C        1.64458538      -0.41850350      -0.15755624        0
C        0.30595061       0.29752750      -0.26153838        0
O        0.34810216       1.47319555       0.55635535        0
C       -0.84726376      -0.60030393       0.21946797        0
N       -2.13392176       0.09128104       0.07987381        0
H        1.65882999      -1.32548881      -0.76936948        0
H        1.86444450      -0.69025532       0.88074095        0
H        2.45635097       0.23799368      -0.48887258        0
H        0.13087978       0.61122914      -1.29739835        0
H        1.00552919       2.07013166       0.15955599        0
H       -0.87677589      -1.53327869      -0.35221667        0
H       -0.70597729      -0.84708655       1.27809896        0
H       -2.01848168       1.01974822       0.49633604        0
H       -2.83225220      -0.38619002       0.64677656        0
O       -0.05483707       3.48133814       2.30745788        1
H        0.21907077       4.12953584       2.95633851        1
H        0.74167231       2.98893928       2.10909456        1
O       -1.45622294       4.13621486      -0.23956430        2
H       -1.81813092       4.72187719       0.42545757        2
H       -1.81615546       3.27602728      -0.02332894        2
O        0.12829549      -2.05936568      -3.50073785        3
H       -0.45494737      -2.81693231      -3.54713192        3
H       -0.27687352      -1.40906526      -4.07447932        3
26
Properties=species:S:1:pos:R:3:fragment_id:I:1 config_id=nextgen_prospective__nextgen_prospective_013__cluster_3water__compressed molecule_id=nextgen_prospective_013 smiles=COP(=O)(OC)OC split=new_prospective chemical_role=polar category=cluster_3water motif=compressed regime=compressed conformer_index=0 n_solute_atoms=17 n_waters=3 pbc="F F F"
C       -1.97413452      -1.62203004      -0.34151589        0
O       -0.71030815      -1.30998021       0.20623308        0
P        0.01689995       0.00448832      -0.37361112        0
O        0.16497570       0.04381461      -1.86193412        0
O        1.39824389       0.05800978       0.45216300        0
C        2.37254950      -0.90543738       0.10987733        0
O       -0.84011652       1.21155408       0.25994518        0
C       -0.42839284       2.51950581      -0.07829594        0
H       -2.66894065      -0.79083991      -0.19417392        0
H       -2.36835935      -2.50576627       0.16639165        0
H       -1.87776457      -1.84166518      -1.40817863        0
H        1.97182644      -1.91458896       0.23784650        0
H        2.69593338      -0.76203793      -0.92460576        0
H        3.23516957      -0.78202737       0.76944539        0
H       -1.06527747       3.23508223       0.44772816        0
H       -0.53199318       2.67970794      -1.15481733        0
H        0.60968882       2.68221048       0.22378918        0
O       -3.62728578       3.25770978       0.95105279        1
H       -2.72490665       3.53230123       0.78813171        1
H       -3.60343020       2.30313794       0.88430434        1
O       -5.77823940       5.04289088       1.87317983        2
H       -4.89101010       5.28363156       1.60653412        2
H       -5.80918552       4.09147911       1.77273167        2
O       -7.70714388       6.92454068       2.93472614        3
H       -6.82516119       7.10907032       2.61179088        3
H       -7.80872569       5.97872856       2.82817840        3
26
Properties=species:S:1:pos:R:3:fragment_id:I:1 config_id=nextgen_prospective__nextgen_prospective_013__cluster_3water__cooperative molecule_id=nextgen_prospective_013 smiles=COP(=O)(OC)OC split=new_prospective chemical_role=polar category=cluster_3water motif=cooperative regime=cooperative conformer_index=0 n_solute_atoms=17 n_waters=3 pbc="F F F"
C       -1.97413452      -1.62203004      -0.34151589        0
O       -0.71030815      -1.30998021       0.20623308        0
P        0.01689995       0.00448832      -0.37361112        0
O        0.16497570       0.04381461      -1.86193412        0
O        1.39824389       0.05800978       0.45216300        0
C        2.37254950      -0.90543738       0.10987733        0
O       -0.84011652       1.21155408       0.25994518        0
C       -0.42839284       2.51950581      -0.07829594        0
H       -2.66894065      -0.79083991      -0.19417392        0
H       -2.36835935      -2.50576627       0.16639165        0
H       -1.87776457      -1.84166518      -1.40817863        0
H        1.97182644      -1.91458896       0.23784650        0
H        2.69593338      -0.76203793      -0.92460576        0
H        3.23516957      -0.78202737       0.76944539        0
H       -1.06527747       3.23508223       0.44772816        0
H       -0.53199318       2.67970794      -1.15481733        0
H        0.60968882       2.68221048       0.22378918        0
O       -1.24237869       5.62791174      -0.08180097        1
H       -0.36170132       5.25289497      -0.08052456        1
H       -1.82621980       4.86938593      -0.08179919        1
O       -1.83742647       8.41196859      -0.14731567        2
H       -0.97496621       7.99768064      -0.11975397        2
H       -2.45503720       7.68067626      -0.14791945        2
O       -2.37390732      11.18080647      -0.40905418        3
H       -1.52298815      10.75688708      -0.29742645        3
H       -3.00288828      10.45927783      -0.41240259        3
26
Properties=species:S:1:pos:R:3:fragment_id:I:1 config_id=nextgen_prospective__nextgen_prospective_013__cluster_3water__equilibrium molecule_id=nextgen_prospective_013 smiles=COP(=O)(OC)OC split=new_prospective chemical_role=polar category=cluster_3water motif=equilibrium regime=equilibrium conformer_index=0 n_solute_atoms=17 n_waters=3 pbc="F F F"
C       -1.97413452      -1.62203004      -0.34151589        0
O       -0.71030815      -1.30998021       0.20623308        0
P        0.01689995       0.00448832      -0.37361112        0
O        0.16497570       0.04381461      -1.86193412        0
O        1.39824389       0.05800978       0.45216300        0
C        2.37254950      -0.90543738       0.10987733        0
O       -0.84011652       1.21155408       0.25994518        0
C       -0.42839284       2.51950581      -0.07829594        0
H       -2.66894065      -0.79083991      -0.19417392        0
H       -2.36835935      -2.50576627       0.16639165        0
H       -1.87776457      -1.84166518      -1.40817863        0
H        1.97182644      -1.91458896       0.23784650        0
H        2.69593338      -0.76203793      -0.92460576        0
H        3.23516957      -0.78202737       0.76944539        0
H       -1.06527747       3.23508223       0.44772816        0
H       -0.53199318       2.67970794      -1.15481733        0
H        0.60968882       2.68221048       0.22378918        0
O       -3.31940385       4.74256264       1.30906278        1
H       -2.87781008       3.94206412       1.59266268        1
H       -2.60800587       5.34790106       1.09999303        1
O       -2.43855579      -5.09844997       0.60207946        2
H       -2.95397844      -5.62973306      -0.00480571        2
H       -3.08682378      -4.57372122       1.07180299        2
O       -4.41715459      -3.73433927      -0.27496872        3
H       -4.86893192      -4.56836135      -0.14637535        3
H       -4.11085845      -3.49016235       0.59841100        3
26
Properties=species:S:1:pos:R:3:fragment_id:I:1 config_id=nextgen_prospective__nextgen_prospective_013__cluster_3water__orientation molecule_id=nextgen_prospective_013 smiles=COP(=O)(OC)OC split=new_prospective chemical_role=polar category=cluster_3water motif=orientation regime=orientation conformer_index=0 n_solute_atoms=17 n_waters=3 pbc="F F F"
C       -1.97413452      -1.62203004      -0.34151589        0
O       -0.71030815      -1.30998021       0.20623308        0
P        0.01689995       0.00448832      -0.37361112        0
O        0.16497570       0.04381461      -1.86193412        0
O        1.39824389       0.05800978       0.45216300        0
C        2.37254950      -0.90543738       0.10987733        0
O       -0.84011652       1.21155408       0.25994518        0
C       -0.42839284       2.51950581      -0.07829594        0
H       -2.66894065      -0.79083991      -0.19417392        0
H       -2.36835935      -2.50576627       0.16639165        0
H       -1.87776457      -1.84166518      -1.40817863        0
H        1.97182644      -1.91458896       0.23784650        0
H        2.69593338      -0.76203793      -0.92460576        0
H        3.23516957      -0.78202737       0.76944539        0
H       -1.06527747       3.23508223       0.44772816        0
H       -0.53199318       2.67970794      -1.15481733        0
H        0.60968882       2.68221048       0.22378918        0
O       -3.31940385       4.74256264       1.30906278        1
H       -2.54475479       5.30483063       1.31138336        1
H       -3.08841409       4.01339570       1.88455488        1
O       -2.43855579      -5.09844997       0.60207946        2
H       -3.12936458      -5.75066034       0.71885578        2
H       -2.27794985      -5.08528728      -0.34145873        2
O       -4.41715459      -3.73433927      -0.27496872        3
H       -4.95024513      -4.22400330      -0.90128770        3
H       -3.75706359      -3.29647718      -0.81235916        3
23
Properties=species:S:1:pos:R:3:fragment_id:I:1 config_id=nextgen_prospective__nextgen_prospective_014__cluster_3water__compressed molecule_id=nextgen_prospective_014 smiles=COC(=O)C(=O)OC split=new_prospective chemical_role=polar category=cluster_3water motif=compressed regime=compressed conformer_index=0 n_solute_atoms=14 n_waters=3 pbc="F F F"
C        2.97502787       0.14629389       0.26340038        0
O        1.61443778       0.48374997       0.52848802        0
C        0.71939283      -0.22255003      -0.19971838        0
O        0.97468639      -1.08306744      -1.02459100        0
C       -0.71939731       0.22247050       0.16634556        0
O       -0.97470138       1.08287274       0.99133225        0
O       -1.61442951      -0.48368926      -0.56200995        0
C       -2.97502339      -0.14624071      -0.29693623        0
H        3.60955261       0.76995985       0.89918763        0
H        3.22470811       0.35150450      -0.78238072        0
H        3.16491623      -0.90348769       0.50834231        0
H       -3.16487071       0.90358584      -0.54172573        0
H       -3.22477553      -0.35163334       0.74878901        0
H       -3.60952398      -0.76976882      -0.93288316        0
O        5.23604508       1.69872499       1.91509523        1
H        4.94022718       1.65878180       1.00562937        1
H        4.48761424       1.38834413       2.42474888        1
O        7.34428076       2.78091775       3.16428101        2
H        7.18898615       2.72124856       2.22164905        2
H        6.57740682       2.36722233       3.56050354        2
O        9.84999527       3.75046100       4.09638430        3
H        9.59183828       3.56769455       3.19295570        3
H        9.07570823       3.53374094       4.61575299        3
23
Properties=species:S:1:pos:R:3:fragment_id:I:1 config_id=nextgen_prospective__nextgen_prospective_014__cluster_3water__cooperative molecule_id=nextgen_prospective_014 smiles=COC(=O)C(=O)OC split=new_prospective chemical_role=polar category=cluster_3water motif=cooperative regime=cooperative conformer_index=0 n_solute_atoms=14 n_waters=3 pbc="F F F"
C        2.97502787       0.14629389       0.26340038        0
O        1.61443778       0.48374997       0.52848802        0
C        0.71939283      -0.22255003      -0.19971838        0
O        0.97468639      -1.08306744      -1.02459100        0
C       -0.71939731       0.22247050       0.16634556        0
O       -0.97470138       1.08287274       0.99133225        0
O       -1.61442951      -0.48368926      -0.56200995        0
C       -2.97502339      -0.14624071      -0.29693623        0
H        3.60955261       0.76995985       0.89918763        0
H        3.22470811       0.35150450      -0.78238072        0
H        3.16491623      -0.90348769       0.50834231        0
H       -3.16487071       0.90358584      -0.54172573        0
H       -3.22477553      -0.35163334       0.74878901        0
H       -3.60952398      -0.76976882      -0.93288316        0
O        5.63740242       2.64971765      -0.17010406        1
H        5.48217953       1.84973428       0.33205558        1
H        4.77274684       2.90059756      -0.49516072        1
O        8.04258543       3.85418412      -0.35434847        2
H        7.85809262       2.94995833      -0.10024225        2
H        7.18179617       4.23495402      -0.52838287        2
O       10.63665071       5.14811510      -0.36411101        3
H       10.45024262       4.20932856      -0.35131690        3
H        9.77450565       5.56387880      -0.37295898        3
23
Properties=species:S:1:pos:R:3:fragment_id:I:1 config_id=nextgen_prospective__nextgen_prospective_014__cluster_3water__equilibrium molecule_id=nextgen_prospective_014 smiles=COC(=O)C(=O)OC split=new_prospective chemical_role=polar category=cluster_3water motif=equilibrium regime=equilibrium conformer_index=0 n_solute_atoms=14 n_waters=3 pbc="F F F"
C        2.97502787       0.14629389       0.26340038        0
O        1.61443778       0.48374997       0.52848802        0
C        0.71939283      -0.22255003      -0.19971838        0
O        0.97468639      -1.08306744      -1.02459100        0
C       -0.71939731       0.22247050       0.16634556        0
O       -0.97470138       1.08287274       0.99133225        0
O       -1.61442951      -0.48368926      -0.56200995        0
C       -2.97502339      -0.14624071      -0.29693623        0
H        3.60955261       0.76995985       0.89918763        0
H        3.22470811       0.35150450      -0.78238072        0
H        3.16491623      -0.90348769       0.50834231        0
H       -3.16487071       0.90358584      -0.54172573        0
H       -3.22477553      -0.35163334       0.74878901        0
H       -3.60952398      -0.76976882      -0.93288316        0
O        6.59682206       0.27676723       0.23712666        1
H        5.75087506       0.45294152      -0.17465985        1
H        6.54051621      -0.63588663       0.52018927        1
O        2.02646982      -2.28485635      -3.12626820        2
H        1.49668549      -1.51202009      -2.93060393        2
H        1.42299948      -3.02109828      -3.02625213        2
O       -5.39797297      -2.61379814       0.76256423        3
H       -5.19299178      -1.67947414       0.79796500        3
H       -5.37201327      -2.83004026      -0.16952872        3
23
Properties=species:S:1:pos:R:3:fragment_id:I:1 config_id=nextgen_prospective__nextgen_prospective_014__cluster_3water__orientation molecule_id=nextgen_prospective_014 smiles=COC(=O)C(=O)OC split=new_prospective chemical_role=polar category=cluster_3water motif=orientation regime=orientation conformer_index=0 n_solute_atoms=14 n_waters=3 pbc="F F F"
C        2.97502787       0.14629389       0.26340038        0
O        1.61443778       0.48374997       0.52848802        0
C        0.71939283      -0.22255003      -0.19971838        0
O        0.97468639      -1.08306744      -1.02459100        0
C       -0.71939731       0.22247050       0.16634556        0
O       -0.97470138       1.08287274       0.99133225        0
O       -1.61442951      -0.48368926      -0.56200995        0
C       -2.97502339      -0.14624071      -0.29693623        0
H        3.60955261       0.76995985       0.89918763        0
H        3.22470811       0.35150450      -0.78238072        0
H        3.16491623      -0.90348769       0.50834231        0
H       -3.16487071       0.90358584      -0.54172573        0
H       -3.22477553      -0.35163334       0.74878901        0
H       -3.60952398      -0.76976882      -0.93288316        0
O        6.59682206       0.27676723       0.23712666        1
H        6.64686289       0.22120916      -0.71714848        1
H        6.66853976      -0.63026443       0.53441775        1
O        2.02646982      -2.28485635      -3.12626820        2
H        1.11470016      -2.23273883      -2.83957726        2
H        1.99246225      -2.11198958      -4.06711485        2
O       -5.39797297      -2.61379814       0.76256423        3
H       -4.84040938      -2.73631021      -0.00577519        3
H       -6.28943924      -2.60980104       0.41399033        3
20
Properties=species:S:1:pos:R:3:fragment_id:I:1 config_id=nextgen_prospective__nextgen_prospective_015__cluster_3water__compressed molecule_id=nextgen_prospective_015 smiles=O=Cc1ccco1 split=new_prospective chemical_role=polar category=cluster_3water motif=compressed regime=compressed conformer_index=0 n_solute_atoms=11 n_waters=3 pbc="F F F"
O        2.80576561      -0.72879431      -0.38759096        0
C        2.03978126       0.20152451      -0.14711175        0
C        0.60848655       0.09378494      -0.07126296        0
C       -0.24310496      -0.98130585      -0.23067893        0
C       -1.55619578      -0.48749943      -0.04120264        0
C       -1.42527078       0.85574437       0.22163492        0
O       -0.11638343       1.21904166       0.20584831        0
H        2.44013132       1.21422292       0.03046083        0
H        0.05909405      -1.99540688      -0.45646490        0
H       -2.48339170      -1.04141557      -0.09002604        0
H       -2.12891215       1.65010365       0.43035137        0
O       -4.30239985       1.61899040       0.01881956        1
H       -3.54377310       2.20084297       0.06534782        1
H       -3.93105670       0.73737893       0.05194543        1
O       -7.12619570       2.14359352       0.26143112        2
H       -6.41444432       2.78124376       0.20625878        2
H       -6.68998316       1.29267522       0.21797405        2
O       -9.76591066       2.92493573       0.23847064        3
H       -8.98930910       3.48447858       0.24427165        3
H       -9.41897346       2.03283111       0.24244228        3
20
Properties=species:S:1:pos:R:3:fragment_id:I:1 config_id=nextgen_prospective__nextgen_prospective_015__cluster_3water__cooperative molecule_id=nextgen_prospective_015 smiles=O=Cc1ccco1 split=new_prospective chemical_role=polar category=cluster_3water motif=cooperative regime=cooperative conformer_index=0 n_solute_atoms=11 n_waters=3 pbc="F F F"
O        2.80576561      -0.72879431      -0.38759096        0
C        2.03978126       0.20152451      -0.14711175        0
C        0.60848655       0.09378494      -0.07126296        0
C       -0.24310496      -0.98130585      -0.23067893        0
C       -1.55619578      -0.48749943      -0.04120264        0
C       -1.42527078       0.85574437       0.22163492        0
O       -0.11638343       1.21904166       0.20584831        0
H        2.44013132       1.21422292       0.03046083        0
H        0.05909405      -1.99540688      -0.45646490        0
H       -2.48339170      -1.04141557      -0.09002604        0
H       -2.12891215       1.65010365       0.43035137        0
O       -4.70738944      -1.96221312      -0.91131565        1
H       -4.50385556      -1.03247534      -0.80936731        1
H       -3.88133665      -2.41011902      -0.72897275        1
O       -7.11959750      -2.98918480      -1.33412178        2
H       -6.88013951      -2.06498229      -1.26526375        2
H       -6.29468380      -3.46024249      -1.21641925        2
O       -9.82251740      -3.94426521      -1.87195952        3
H       -9.52744415      -3.03759280      -1.78764601        3
H       -9.03171623      -4.46724242      -1.74020143        3
20
Properties=species:S:1:pos:R:3:fragment_id:I:1 config_id=nextgen_prospective__nextgen_prospective_015__cluster_3water__equilibrium molecule_id=nextgen_prospective_015 smiles=O=Cc1ccco1 split=new_prospective chemical_role=polar category=cluster_3water motif=equilibrium regime=equilibrium conformer_index=0 n_solute_atoms=11 n_waters=3 pbc="F F F"
O        2.80576561      -0.72879431      -0.38759096        0
C        2.03978126       0.20152451      -0.14711175        0
C        0.60848655       0.09378494      -0.07126296        0
C       -0.24310496      -0.98130585      -0.23067893        0
C       -1.55619578      -0.48749943      -0.04120264        0
C       -1.42527078       0.85574437       0.22163492        0
O       -0.11638343       1.21904166       0.20584831        0
H        2.44013132       1.21422292       0.03046083        0
H        0.05909405      -1.99540688      -0.45646490        0
H       -2.48339170      -1.04141557      -0.09002604        0
H       -2.12891215       1.65010365       0.43035137        0
O        5.30131947      -1.47118277      -0.82618159        1
H        4.47908960      -1.84687755      -0.51150189        1
H        5.59591217      -0.90618206      -0.11188391        1
O       -0.40008196       3.43796573       0.25817471        2
H       -0.30079630       4.30759449      -0.12927853        2
H       -1.23854161       3.47461931       0.71847219        2
O       -4.08586502      -1.77043338      -1.17870053        3
H       -4.22734923      -2.58024631      -0.68837709        3
H       -4.90761542      -1.62754061      -1.64831716        3
20
Properties=species:S:1:pos:R:3:fragment_id:I:1 config_id=nextgen_prospective__nextgen_prospective_015__cluster_3water__orientation molecule_id=nextgen_prospective_015 smiles=O=Cc1ccco1 split=new_prospective chemical_role=polar category=cluster_3water motif=orientation regime=orientation conformer_index=0 n_solute_atoms=11 n_waters=3 pbc="F F F"
O        2.80576561      -0.72879431      -0.38759096        0
C        2.03978126       0.20152451      -0.14711175        0
C        0.60848655       0.09378494      -0.07126296        0
C       -0.24310496      -0.98130585      -0.23067893        0
C       -1.55619578      -0.48749943      -0.04120264        0
C       -1.42527078       0.85574437       0.22163492        0
O       -0.11638343       1.21904166       0.20584831        0
H        2.44013132       1.21422292       0.03046083        0
H        0.05909405      -1.99540688      -0.45646490        0
H       -2.48339170      -1.04141557      -0.09002604        0
H       -2.12891215       1.65010365       0.43035137        0
O        5.30131947      -1.47118277      -0.82618159        1
H        4.86976395      -0.66930179      -1.12110288        1
H        5.98790397      -1.62668662      -1.47475858        1
O       -0.40008196       3.43796573       0.25817471        2
H       -0.71867824       4.07749633       0.89514320        2
H       -1.18167963       3.17159170      -0.22595523        2
O       -4.08586502      -1.77043338      -1.17870053        3
H       -3.98412308      -1.66907769      -0.23233514        3
H       -3.64783550      -2.59738961      -1.37996001        3
25
Properties=species:S:1:pos:R:3:fragment_id:I:1 config_id=nextgen_prospective__nextgen_prospective_016__cluster_3water__compressed molecule_id=nextgen_prospective_016 smiles=CC(=O)COC(C)=O split=new_prospective chemical_role=polar category=cluster_3water motif=compressed regime=compressed conformer_index=0 n_solute_atoms=16 n_waters=3 pbc="F F F"
C       -2.76140366       0.10498978       0.09471387        0
C       -1.35483635      -0.39413187      -0.10222459        0
O       -0.99789886      -1.48774710       0.33815126        0
C       -0.42662339       0.51248858      -0.90623476        0
O        0.94283785       0.12859844      -0.80915587        0
C        1.51875757       0.44794611       0.38278927        0
C        2.91379850      -0.09266147       0.44377651        0
O        0.98547972       1.09900354       1.27072241        0
H       -2.74051572       1.05531444       0.63377131        0
H       -3.24362318       0.23246284      -0.87749691        0
H       -3.33169026      -0.62030431       0.68163518        0
H       -0.71680292       0.43325801      -1.95886108        0
H       -0.55867073       1.55668370      -0.60046265        0
H        2.89719408      -1.17743487       0.31122986        0
H        3.34570372       0.12933831       1.42381019        0
H        3.52829365       0.38023978      -0.32616400        0
O        5.74698321      -0.29716981      -0.85578338        1
H        5.09659580      -0.98150480      -1.01362406        1
H        5.23023545       0.49060274      -0.68661486        1
O        8.46350330      -0.16009229      -1.44360880        2
H        7.92885619       0.49084793      -0.98900883        2
H        7.85428239      -0.86875290      -1.65068816        2
O       11.15998391      -0.47378583      -1.91331433        3
H       10.50035797      -0.11212709      -2.50519980        3
H       10.67273566      -0.70202361      -1.12165247        3
25
Properties=species:S:1:pos:R:3:fragment_id:I:1 config_id=nextgen_prospective__nextgen_prospective_016__cluster_3water__cooperative molecule_id=nextgen_prospective_016 smiles=CC(=O)COC(C)=O split=new_prospective chemical_role=polar category=cluster_3water motif=cooperative regime=cooperative conformer_index=0 n_solute_atoms=16 n_waters=3 pbc="F F F"
C       -2.76140366       0.10498978       0.09471387        0
C       -1.35483635      -0.39413187      -0.10222459        0
O       -0.99789886      -1.48774710       0.33815126        0
C       -0.42662339       0.51248858      -0.90623476        0
O        0.94283785       0.12859844      -0.80915587        0
C        1.51875757       0.44794611       0.38278927        0
C        2.91379850      -0.09266147       0.44377651        0
O        0.98547972       1.09900354       1.27072241        0
H       -2.74051572       1.05531444       0.63377131        0
H       -3.24362318       0.23246284      -0.87749691        0
H       -3.33169026      -0.62030431       0.68163518        0
H       -0.71680292       0.43325801      -1.95886108        0
H       -0.55867073       1.55668370      -0.60046265        0
H        2.89719408      -1.17743487       0.31122986        0
H        3.34570372       0.12933831       1.42381019        0
H        3.52829365       0.38023978      -0.32616400        0
O        2.06772472       2.54292612       3.22722855        1
H        2.24014376       2.60659817       2.28784078        1
H        1.41884822       1.84356837       3.30526613        1
O        3.79281941       3.68389189       5.08324362        2
H        3.73990440       3.86381885       4.14459665        2
H        3.11833486       3.02286787       5.23928744        2
O        5.33756778       5.25551866       7.01033867        3
H        5.43478648       5.23603171       6.05828792        3
H        4.62203539       4.64593335       7.19103449        3
25
Properties=species:S:1:pos:R:3:fragment_id:I:1 config_id=nextgen_prospective__nextgen_prospective_016__cluster_3water__equilibrium molecule_id=nextgen_prospective_016 smiles=CC(=O)COC(C)=O split=new_prospective chemical_role=polar category=cluster_3water motif=equilibrium regime=equilibrium conformer_index=0 n_solute_atoms=16 n_waters=3 pbc="F F F"
C       -2.76140366       0.10498978       0.09471387        0
C       -1.35483635      -0.39413187      -0.10222459        0
O       -0.99789886      -1.48774710       0.33815126        0
C       -0.42662339       0.51248858      -0.90623476        0
O        0.94283785       0.12859844      -0.80915587        0
C        1.51875757       0.44794611       0.38278927        0
C        2.91379850      -0.09266147       0.44377651        0
O        0.98547972       1.09900354       1.27072241        0
H       -2.74051572       1.05531444       0.63377131        0
H       -3.24362318       0.23246284      -0.87749691        0
H       -3.33169026      -0.62030431       0.68163518        0
H       -0.71680292       0.43325801      -1.95886108        0
H       -0.55867073       1.55668370      -0.60046265        0
H        2.89719408      -1.17743487       0.31122986        0
H        3.34570372       0.12933831       1.42381019        0
H        3.52829365       0.38023978      -0.32616400        0
O       -0.99468687       1.68272827      -3.75730928        1
H       -1.43475648       2.30151402      -4.34012551        1
H       -0.06176425       1.85480238      -3.88489346        1
O       -1.37617712      -3.68069199       0.08669549        2
H       -2.28169591      -3.41508378      -0.07367857        2
H       -0.93235528      -3.53715737      -0.74915846        2
O       -6.46451238       0.73871194      -0.23573170        3
H       -6.87522784       1.44859838      -0.72929618        3
H       -5.52640567       0.92168265      -0.28778316        3
25
Properties=species:S:1:pos:R:3:fragment_id:I:1 config_id=nextgen_prospective__nextgen_prospective_016__cluster_3water__orientation molecule_id=nextgen_prospective_016 smiles=CC(=O)COC(C)=O split=new_prospective chemical_role=polar category=cluster_3water motif=orientation regime=orientation conformer_index=0 n_solute_atoms=16 n_waters=3 pbc="F F F"
C       -2.76140366       0.10498978       0.09471387        0
C       -1.35483635      -0.39413187      -0.10222459        0
O       -0.99789886      -1.48774710       0.33815126        0
C       -0.42662339       0.51248858      -0.90623476        0
O        0.94283785       0.12859844      -0.80915587        0
C        1.51875757       0.44794611       0.38278927        0
C        2.91379850      -0.09266147       0.44377651        0
O        0.98547972       1.09900354       1.27072241        0
H       -2.74051572       1.05531444       0.63377131        0
H       -3.24362318       0.23246284      -0.87749691        0
H       -3.33169026      -0.62030431       0.68163518        0
H       -0.71680292       0.43325801      -1.95886108        0
H       -0.55867073       1.55668370      -0.60046265        0
H        2.89719408      -1.17743487       0.31122986        0
H        3.34570372       0.12933831       1.42381019        0
H        3.52829365       0.38023978      -0.32616400        0
O       -0.99468687       1.68272827      -3.75730928        1
H       -1.70500868       2.01768386      -3.21006207        1
H       -0.92870838       2.31130862      -4.47617326        1
O       -1.37617712      -3.68069199       0.08669549        2
H       -0.64831402      -4.24773819       0.34146156        2
H       -1.76833649      -3.40649672       0.91570684        2
O       -6.46451238       0.73871194      -0.23573170        3
H       -6.22960322       1.29429389       0.50748982        3
H       -6.96718897       1.31196771      -0.81445954        3
18
Properties=species:S:1:pos:R:3:fragment_id:I:1 config_id=nextgen_prospective__nextgen_prospective_017__cluster_3water__compressed molecule_id=nextgen_prospective_017 smiles=CNC=O split=new_prospective chemical_role=polar category=cluster_3water motif=compressed regime=compressed conformer_index=0 n_solute_atoms=9 n_waters=3 pbc="F F F"
C       -1.10302534       0.02200046       0.14883988        0
N        0.21580053      -0.51946041      -0.04885484        0
C        1.30857484       0.29973353      -0.15988006        0
O        1.29282890       1.52036722      -0.10554830        0
H       -1.37825116       0.62273021      -0.72225148        0
H       -1.80763743      -0.80363711       0.27108895        0
H       -1.10742997       0.65358896       1.04139766        0
H        0.34096992      -1.52097463      -0.11540750        0
H        2.23816971      -0.27434825      -0.30938429        0
O        1.47067395      -3.48467599       0.09560923        1
H        0.54616927      -3.23788624       0.12046404        1
H        1.93896041      -2.65344039       0.01823347        1
O        2.58161036      -6.20253851       0.18834466        2
H        1.65971661      -5.94553118       0.20540307        2
H        3.06036985      -5.37543520       0.13429561        2
O        3.51529208      -8.86864141       0.67871976        3
H        2.62061667      -8.53750115       0.75703882        3
H        4.02837969      -8.11016804       0.39998856        3
18
Properties=species:S:1:pos:R:3:fragment_id:I:1 config_id=nextgen_prospective__nextgen_prospective_017__cluster_3water__cooperative molecule_id=nextgen_prospective_017 smiles=CNC=O split=new_prospective chemical_role=polar category=cluster_3water motif=cooperative regime=cooperative conformer_index=0 n_solute_atoms=9 n_waters=3 pbc="F F F"
C       -1.10302534       0.02200046       0.14883988        0
N        0.21580053      -0.51946041      -0.04885484        0
C        1.30857484       0.29973353      -0.15988006        0
O        1.29282890       1.52036722      -0.10554830        0
H       -1.37825116       0.62273021      -0.72225148        0
H       -1.80763743      -0.80363711       0.27108895        0
H       -1.10742997       0.65358896       1.04139766        0
H        0.34096992      -1.52097463      -0.11540750        0
H        2.23816971      -0.27434825      -0.30938429        0
O        3.94896087       1.02813294      -1.41799645        1
H        3.61865370       1.28700422      -0.55769728        1
H        3.25280372       0.48609246      -1.78919609        1
O        6.61205809       1.45635522      -2.23197969        2
H        6.17332162       1.80508012      -1.45600733        2
H        5.94322498       0.92953470      -2.66942026        2
O        9.34371260       2.04035492      -3.14252218        3
H        8.94944664       2.25509748      -2.29713953        3
H        8.64852579       1.59269854      -3.62475750        3
18
Properties=species:S:1:pos:R:3:fragment_id:I:1 config_id=nextgen_prospective__nextgen_prospective_017__cluster_3water__equilibrium molecule_id=nextgen_prospective_017 smiles=CNC=O split=new_prospective chemical_role=polar category=cluster_3water motif=equilibrium regime=equilibrium conformer_index=0 n_solute_atoms=9 n_waters=3 pbc="F F F"
C       -1.10302534       0.02200046       0.14883988        0
N        0.21580053      -0.51946041      -0.04885484        0
C        1.30857484       0.29973353      -0.15988006        0
O        1.29282890       1.52036722      -0.10554830        0
H       -1.37825116       0.62273021      -0.72225148        0
H       -1.80763743      -0.80363711       0.27108895        0
H       -1.10742997       0.65358896       1.04139766        0
H        0.34096992      -1.52097463      -0.11540750        0
H        2.23816971      -0.27434825      -0.30938429        0
O        0.22254205      -1.23862301       2.98576223        1
H       -0.54642415      -0.78590229       2.63940003        1
H        0.43340273      -0.77002477       3.79334214        1
O        3.99559004       0.57507876      -0.17911118        2
H        4.18652567      -0.09399243      -0.83646890        2
H        4.59831022       1.29031526      -0.38257365        2
O       -3.33393698      -0.92181944       2.40376858        3
H       -3.19974176      -1.71376373       2.92439101        3
H       -2.60478828      -0.35016713       2.64415922        3
18
Properties=species:S:1:pos:R:3:fragment_id:I:1 config_id=nextgen_prospective__nextgen_prospective_017__cluster_3water__orientation molecule_id=nextgen_prospective_017 smiles=CNC=O split=new_prospective chemical_role=polar category=cluster_3water motif=orientation regime=orientation conformer_index=0 n_solute_atoms=9 n_waters=3 pbc="F F F"
C       -1.10302534       0.02200046       0.14883988        0
N        0.21580053      -0.51946041      -0.04885484        0
C        1.30857484       0.29973353      -0.15988006        0
O        1.29282890       1.52036722      -0.10554830        0
H       -1.37825116       0.62273021      -0.72225148        0
H       -1.80763743      -0.80363711       0.27108895        0
H       -1.10742997       0.65358896       1.04139766        0
H        0.34096992      -1.52097463      -0.11540750        0
H        2.23816971      -0.27434825      -0.30938429        0
O        0.22254205      -1.23862301       2.98576223        1
H        0.01352551      -0.35260057       3.28158000        1
H       -0.37768564      -1.80240342       3.47372762        1
O        3.99559004       0.57507876      -0.17911118        2
H        3.45252107       1.36324630      -0.18910473        2
H        3.43507159      -0.09768776       0.20745850        2
O       -3.33393698      -0.92181944       2.40376858        3
H       -4.25883572      -0.90013775       2.64937815        3
H       -3.04164428      -0.01433869       2.48906524        3
19
Properties=species:S:1:pos:R:3:fragment_id:I:1 config_id=nextgen_prospective__nextgen_prospective_018__cluster_3water__compressed molecule_id=nextgen_prospective_018 smiles=n1ncccc1 split=new_prospective chemical_role=polar category=cluster_3water motif=compressed regime=compressed conformer_index=0 n_solute_atoms=10 n_waters=3 pbc="F F F"
N       -0.59395952      -1.52747336       0.57675944        0
N        0.76390215      -1.43660195       0.60929678        0
C        1.36127163      -0.30274036       0.18907013        0
C        0.64937099       0.78480463      -0.27893585        0
C       -0.73405505       0.69222233      -0.31208591        0
C       -1.31628330      -0.48192890       0.12490993        0
H        2.44371494      -0.30005048       0.24271447        0
H        1.16054187       1.68147326      -0.60929506        0
H       -1.34374468       1.51388015      -0.66930363        0
H       -2.39075903      -0.62358531       0.12686969        0
O       -0.86361616      -3.29519075       1.76246845        1
H       -1.41362872      -2.51198713       1.74485886        1
H       -0.16633506      -3.11298460       1.13252256        1
O       -1.36535584      -5.62621236       3.30292385        2
H       -1.88337109      -4.82190362       3.27162704        2
H       -0.64023387      -5.46832842       2.69835571        2
O       -1.99954819      -8.04169793       4.39832435        3
H       -2.53377131      -7.24762359       4.38148895        3
H       -1.19282161      -7.79787238       3.94448169        3
19
Properties=species:S:1:pos:R:3:fragment_id:I:1 config_id=nextgen_prospective__nextgen_prospective_018__cluster_3water__cooperative molecule_id=nextgen_prospective_018 smiles=n1ncccc1 split=new_prospective chemical_role=polar category=cluster_3water motif=cooperative regime=cooperative conformer_index=0 n_solute_atoms=10 n_waters=3 pbc="F F F"
N       -0.59395952      -1.52747336       0.57675944        0
N        0.76390215      -1.43660195       0.60929678        0
C        1.36127163      -0.30274036       0.18907013        0
C        0.64937099       0.78480463      -0.27893585        0
C       -0.73405505       0.69222233      -0.31208591        0
C       -1.31628330      -0.48192890       0.12490993        0
H        2.44371494      -0.30005048       0.24271447        0
H        1.16054187       1.68147326      -0.60929506        0
H       -1.34374468       1.51388015      -0.66930363        0
H       -2.39075903      -0.62358531       0.12686969        0
O       -3.39603466       2.94334510       0.77992004        1
H       -2.50269222       3.17301112       0.52413764        1
H       -3.43555613       1.99163905       0.68544523        1
O       -5.33467019       4.72060887       1.47817391        2
H       -4.42287426       4.90633499       1.25375055        2
H       -5.41165601       3.76956213       1.40191704        2
O       -7.16159456       6.84270717       1.91910846        3
H       -6.21732882       6.90308860       1.77437374        3
H       -7.35066758       5.90511747       1.88157479        3
19
Properties=species:S:1:pos:R:3:fragment_id:I:1 config_id=nextgen_prospective__nextgen_prospective_018__cluster_3water__equilibrium molecule_id=nextgen_prospective_018 smiles=n1ncccc1 split=new_prospective chemical_role=polar category=cluster_3water motif=equilibrium regime=equilibrium conformer_index=0 n_solute_atoms=10 n_waters=3 pbc="F F F"
N       -0.59395952      -1.52747336       0.57675944        0
N        0.76390215      -1.43660195       0.60929678        0
C        1.36127163      -0.30274036       0.18907013        0
C        0.64937099       0.78480463      -0.27893585        0
C       -0.73405505       0.69222233      -0.31208591        0
C       -1.31628330      -0.48192890       0.12490993        0
H        2.44371494      -0.30005048       0.24271447        0
H        1.16054187       1.68147326      -0.60929506        0
H       -1.34374468       1.51388015      -0.66930363        0
H       -2.39075903      -0.62358531       0.12686969        0
O        4.71202915      -1.70361335       0.56293856        1
H        4.59776026      -1.41920472      -0.34386141        1
H        5.57066115      -1.36361607       0.81470190        1
O        1.80684561      -3.63591570       1.87385966        2
H        2.20264142      -3.45855637       2.72715983        2
H        1.24566341      -4.39685585       2.02311271        2
O       -3.82866584       2.20144957       0.53463215        3
H       -3.58998450       1.28078632       0.42673298        3
H       -4.59945549       2.31627401      -0.02118302        3
19
Properties=species:S:1:pos:R:3:fragment_id:I:1 config_id=nextgen_prospective__nextgen_prospective_018__cluster_3water__orientation molecule_id=nextgen_prospective_018 smiles=n1ncccc1 split=new_prospective chemical_role=polar category=cluster_3water motif=orientation regime=orientation conformer_index=0 n_solute_atoms=10 n_waters=3 pbc="F F F"
N       -0.59395952      -1.52747336       0.57675944        0
N        0.76390215      -1.43660195       0.60929678        0
C        1.36127163      -0.30274036       0.18907013        0
C        0.64937099       0.78480463      -0.27893585        0
C       -0.73405505       0.69222233      -0.31208591        0
C       -1.31628330      -0.48192890       0.12490993        0
H        2.44371494      -0.30005048       0.24271447        0
H        1.16054187       1.68147326      -0.60929506        0
H       -1.34374468       1.51388015      -0.66930363        0
H       -2.39075903      -0.62358531       0.12686969        0
O        4.71202915      -1.70361335       0.56293856        1
H        5.05452488      -1.93335626       1.42673640        1
H        5.48627236      -1.65901081       0.00187715        1
O        1.80684561      -3.63591570       1.87385966        2
H        1.23926054      -4.18830021       2.41140072        2
H        2.11989716      -2.95844257       2.47324327        2
O       -3.82866584       2.20144957       0.53463215        3
H       -3.09751877       1.65815917       0.82872627        3
H       -4.57602824       1.89721741       1.04953415        3
18
Properties=species:S:1:pos:R:3:fragment_id:I:1 config_id=nextgen_prospective__nextgen_prospective_019__cluster_3water__compressed molecule_id=nextgen_prospective_019 smiles=CSC split=new_prospective chemical_role=sulfur category=cluster_3water motif=compressed regime=compressed conformer_index=0 n_solute_atoms=9 n_waters=3 pbc="F F F"
C       -1.37062264       0.02778766       0.00909398        0
S       -0.04830103      -1.02784506      -0.62924468        0
C        1.36850305      -0.07289109      -0.03670575        0
H       -2.33814058      -0.40384245      -0.26062775        0
H       -1.30297850       1.02818114      -0.42624521        0
H       -1.31179051       0.09511026       1.09853892        0
H        1.35117452      -0.00276494       1.05401250        0
H        2.29218730      -0.57403659      -0.33804618        0
H        1.35996839       0.93030107      -0.47077583        0
O       -0.92085396      -2.40917331      -1.67740190        1
H       -1.19614671      -1.49974540      -1.56170132        1
H       -0.11884848      -2.48476851      -1.16038699        1
O       -1.61775540      -4.99601499      -2.24685771        2
H       -2.18360126      -4.22397919      -2.24353686        2
H       -0.75376160      -4.66134975      -2.00655432        2
O       -2.68564590      -7.42853788      -3.51328062        3
H       -3.09870447      -6.56677411      -3.45871253        3
H       -1.84740677      -7.32179272      -3.06362247        3
18
Properties=species:S:1:pos:R:3:fragment_id:I:1 config_id=nextgen_prospective__nextgen_prospective_019__cluster_3water__cooperative molecule_id=nextgen_prospective_019 smiles=CSC split=new_prospective chemical_role=sulfur category=cluster_3water motif=cooperative regime=cooperative conformer_index=0 n_solute_atoms=9 n_waters=3 pbc="F F F"
C       -1.37062264       0.02778766       0.00909398        0
S       -0.04830103      -1.02784506      -0.62924468        0
C        1.36850305      -0.07289109      -0.03670575        0
H       -2.33814058      -0.40384245      -0.26062775        0
H       -1.30297850       1.02818114      -0.42624521        0
H       -1.31179051       0.09511026       1.09853892        0
H        1.35117452      -0.00276494       1.05401250        0
H        2.29218730      -0.57403659      -0.33804618        0
H        1.35996839       0.93030107      -0.47077583        0
O        0.58027650      -3.25671120      -1.40909427        1
H       -0.26086935      -2.81322931      -1.51877257        1
H        1.12000286      -2.63139302      -0.92545754        1
O        0.72989036      -5.96052512      -2.22250117        2
H       -0.02495544      -5.37417573      -2.27382422        2
H        1.42273309      -5.42635838      -1.83408556        2
O        0.82450452      -8.36290680      -3.37415854        3
H        0.12156805      -7.71532408      -3.42658735        3
H        1.48585354      -7.95452763      -2.81552112        3
18
Properties=species:S:1:pos:R:3:fragment_id:I:1 config_id=nextgen_prospective__nextgen_prospective_019__cluster_3water__equilibrium molecule_id=nextgen_prospective_019 smiles=CSC split=new_prospective chemical_role=sulfur category=cluster_3water motif=equilibrium regime=equilibrium conformer_index=0 n_solute_atoms=9 n_waters=3 pbc="F F F"
C       -1.37062264       0.02778766       0.00909398        0
S       -0.04830103      -1.02784506      -0.62924468        0
C        1.36850305      -0.07289109      -0.03670575        0
H       -2.33814058      -0.40384245      -0.26062775        0
H       -1.30297850       1.02818114      -0.42624521        0
H       -1.31179051       0.09511026       1.09853892        0
H        1.35117452      -0.00276494       1.05401250        0
H        2.29218730      -0.57403659      -0.33804618        0
H        1.35996839       0.93030107      -0.47077583        0
O        4.90967542      -0.21959683       0.40006678        1
H        4.60952146      -0.54698767       1.24797873        1
H        5.58519333       0.42312429       0.61643904        1
O        1.24422770      -2.60560366      -2.26669229        2
H        1.74852485      -2.93613083      -3.01010874        2
H        1.53494980      -3.13587523      -1.52471887        2
O       -4.20772787      -0.92663850      -0.10629032        3
H       -5.10587056      -0.70892568      -0.35563481        3
H       -4.15953968      -0.71520797       0.82602232        3
18
Properties=species:S:1:pos:R:3:fragment_id:I:1 config_id=nextgen_prospective__nextgen_prospective_019__cluster_3water__orientation molecule_id=nextgen_prospective_019 smiles=CSC split=new_prospective chemical_role=sulfur category=cluster_3water motif=orientation regime=orientation conformer_index=0 n_solute_atoms=9 n_waters=3 pbc="F F F"
C       -1.37062264       0.02778766       0.00909398        0
S       -0.04830103      -1.02784506      -0.62924468        0
C        1.36850305      -0.07289109      -0.03670575        0
H       -2.33814058      -0.40384245      -0.26062775        0
H       -1.30297850       1.02818114      -0.42624521        0
H       -1.31179051       0.09511026       1.09853892        0
H        1.35117452      -0.00276494       1.05401250        0
H        2.29218730      -0.57403659      -0.33804618        0
H        1.35996839       0.93030107      -0.47077583        0
O        4.90967542      -0.21959683       0.40006678        1
H        5.22758090       0.26254710      -0.36328450        1
H        4.46380959       0.43974702       0.93176328        1
O        1.24422770      -2.60560366      -2.26669229        2
H        1.71608005      -2.02047738      -2.85932576        2
H        1.86229129      -3.31390323      -2.08630116        2
O       -4.20772787      -0.92663850      -0.10629032        3
H       -4.87525250      -0.88252401      -0.79090453        3
H       -4.56978779      -1.52911813       0.54345020        3
25
Properties=species:S:1:pos:R:3:fragment_id:I:1 config_id=nextgen_prospective__nextgen_prospective_020__cluster_3water__compressed molecule_id=nextgen_prospective_020 smiles=CSc1ccccc1 split=new_prospective chemical_role=sulfur category=cluster_3water motif=compressed regime=compressed conformer_index=0 n_solute_atoms=16 n_waters=3 pbc="F F F"
C        2.87602868       0.03105253       0.09128710        0
S        1.75521136       0.33027136      -1.30124823        0
C        0.18510441       0.13192432      -0.47800575        0
C       -0.15342085      -1.05470066       0.18017521        0
C       -1.39523624      -1.18445577       0.80681443        0
C       -2.30822457      -0.13186152       0.77185179        0
C       -1.98332809       1.04834415       0.10559574        0
C       -0.74197050       1.17791993      -0.52140460        0
H        2.81328196      -1.00706366       0.42750052        0
H        3.90281810       0.22589477      -0.22996402        0
H        2.64081469       0.69939336       0.92426318        0
H        0.53725291      -1.89332755       0.20106895        0
H       -1.65201538      -2.10983418       1.31593755        0
H       -3.27552778      -0.23385198       1.25717759        0
H       -2.69658138       1.86771272       0.06989378        0
H       -0.50420732       2.10258219      -1.04210334        0
O        6.06365112       0.08515310      -0.39163063        1
H        5.49716057       0.81361596      -0.13734308        1
H        5.47175999      -0.66296991      -0.47042592        1
O        8.96949930       0.27605452      -0.81872483        2
H        8.44016121       0.74451203      -0.17329429        2
H        8.34196895      -0.26840415      -1.29412178        2
O       11.77265752       0.54286067      -1.36245202        3
H       11.27041177       0.95483182      -0.65941516        3
H       11.12956791       0.02187586      -1.84332875        3
25
Properties=species:S:1:pos:R:3:fragment_id:I:1 config_id=nextgen_prospective__nextgen_prospective_020__cluster_3water__cooperative molecule_id=nextgen_prospective_020 smiles=CSc1ccccc1 split=new_prospective chemical_role=sulfur category=cluster_3water motif=cooperative regime=cooperative conformer_index=0 n_solute_atoms=16 n_waters=3 pbc="F F F"
C        2.87602868       0.03105253       0.09128710        0
S        1.75521136       0.33027136      -1.30124823        0
C        0.18510441       0.13192432      -0.47800575        0
C       -0.15342085      -1.05470066       0.18017521        0
C       -1.39523624      -1.18445577       0.80681443        0
C       -2.30822457      -0.13186152       0.77185179        0
C       -1.98332809       1.04834415       0.10559574        0
C       -0.74197050       1.17791993      -0.52140460        0
H        2.81328196      -1.00706366       0.42750052        0
H        3.90281810       0.22589477      -0.22996402        0
H        2.64081469       0.69939336       0.92426318        0
H        0.53725291      -1.89332755       0.20106895        0
H       -1.65201538      -2.10983418       1.31593755        0
H       -3.27552778      -0.23385198       1.25717759        0
H       -2.69658138       1.86771272       0.06989378        0
H       -0.50420732       2.10258219      -1.04210334        0
O        3.54300656       0.77052851      -2.80799508        1
H        3.24282093       1.31477851      -2.08004428        1
H        2.96267575       0.00944514      -2.79385003        1
O        5.42764478       1.35455853      -4.71639332        2
H        5.18644320       1.87752861      -3.95183073        2
H        4.86434169       0.58228073      -4.66630869        2
O        7.17191799       2.04758847      -6.59617907        3
H        6.98468994       2.50163763      -5.77458498        3
H        6.58972498       1.28783501      -6.58857580        3
25
Properties=species:S:1:pos:R:3:fragment_id:I:1 config_id=nextgen_prospective__nextgen_prospective_020__cluster_3water__equilibrium molecule_id=nextgen_prospective_020 smiles=CSc1ccccc1 split=new_prospective chemical_role=sulfur category=cluster_3water motif=equilibrium regime=equilibrium conformer_index=0 n_solute_atoms=16 n_waters=3 pbc="F F F"
C        2.87602868       0.03105253       0.09128710        0
S        1.75521136       0.33027136      -1.30124823        0
C        0.18510441       0.13192432      -0.47800575        0
C       -0.15342085      -1.05470066       0.18017521        0
C       -1.39523624      -1.18445577       0.80681443        0
C       -2.30822457      -0.13186152       0.77185179        0
C       -1.98332809       1.04834415       0.10559574        0
C       -0.74197050       1.17791993      -0.52140460        0
H        2.81328196      -1.00706366       0.42750052        0
H        3.90281810       0.22589477      -0.22996402        0
H        2.64081469       0.69939336       0.92426318        0
H        0.53725291      -1.89332755       0.20106895        0
H       -1.65201538      -2.10983418       1.31593755        0
H       -3.27552778      -0.23385198       1.25717759        0
H       -2.69658138       1.86771272       0.06989378        0
H       -0.50420732       2.10258219      -1.04210334        0
O       -1.21046529      -4.51661753       2.34022788        1
H       -2.13429375      -4.60494419       2.10576844        1
H       -1.10001825      -5.08812225       3.10010658        1
O       -1.92897379       4.11280889      -2.84655710        2
H       -1.57619319       3.26087985      -3.10345127        2
H       -1.30851717       4.44351540      -2.19701986        2
O       -6.16498211      -0.00227505       2.60198411        3
H       -6.08607980      -0.87302984       2.21237873        3
H       -5.31070864       0.15988742       3.00217408        3
25
Properties=species:S:1:pos:R:3:fragment_id:I:1 config_id=nextgen_prospective__nextgen_prospective_020__cluster_3water__orientation molecule_id=nextgen_prospective_020 smiles=CSc1ccccc1 split=new_prospective chemical_role=sulfur category=cluster_3water motif=orientation regime=orientation conformer_index=0 n_solute_atoms=16 n_waters=3 pbc="F F F"
C        2.87602868       0.03105253       0.09128710        0
S        1.75521136       0.33027136      -1.30124823        0
C        0.18510441       0.13192432      -0.47800575        0
C       -0.15342085      -1.05470066       0.18017521        0
C       -1.39523624      -1.18445577       0.80681443        0
C       -2.30822457      -0.13186152       0.77185179        0
C       -1.98332809       1.04834415       0.10559574        0
C       -0.74197050       1.17791993      -0.52140460        0
H        2.81328196      -1.00706366       0.42750052        0
H        3.90281810       0.22589477      -0.22996402        0
H        2.64081469       0.69939336       0.92426318        0
H        0.53725291      -1.89332755       0.20106895        0
H       -1.65201538      -2.10983418       1.31593755        0
H       -3.27552778      -0.23385198       1.25717759        0
H       -2.69658138       1.86771272       0.06989378        0
H       -0.50420732       2.10258219      -1.04210334        0
O       -1.21046529      -4.51661753       2.34022788        1
H       -1.10240806      -3.58375935       2.52551439        1
H       -2.08529268      -4.72646424       2.66714262        1
O       -1.92897379       4.11280889      -2.84655710        2
H       -1.61248526       4.46099109      -3.68012534        2
H       -1.92814694       4.86611981      -2.25600329        2
O       -6.16498211      -0.00227505       2.60198411        3
H       -5.86423754      -0.90494177       2.49721134        3
H       -6.62826078       0.19241831       1.78730675        3
20
Properties=species:S:1:pos:R:3:fragment_id:I:1 config_id=nextgen_prospective__nextgen_prospective_021__cluster_3water__compressed molecule_id=nextgen_prospective_021 smiles=NCCS split=new_prospective chemical_role=sulfur category=cluster_3water motif=compressed regime=compressed conformer_index=0 n_solute_atoms=11 n_waters=3 pbc="F F F"
N       -0.89770422       0.70009988      -0.75449991        0
C       -0.71530806      -0.30287238       0.29753946        0
C        0.73415939      -0.78459489       0.43148906        0
S        1.88563198       0.56916714       0.83054684        0
H       -0.39781929       1.54850370      -0.48495187        0
H       -1.88218445       0.96430470      -0.79450225        0
H       -1.06837040       0.10570969       1.25167605        0
H       -1.34979010      -1.16538089       0.06519170        0
H        1.06789281      -1.25997721      -0.49688802        0
H        0.79692146      -1.53063573       1.23010736        0
H        1.82657089       1.15567597      -0.37459972        0
O        2.22599476      -1.17850128       3.03677991        1
H        1.83886135      -0.37058459       2.69968916        1
H        2.03580708      -1.83398126       2.36565661        1
O        3.83431625      -1.82264388       5.16560726        2
H        3.31336416      -1.02888950       5.04397355        2
H        3.66865198      -2.34140420       4.37841292        2
O        5.26338530      -2.57888657       7.53871362        3
H        4.77246351      -1.77215161       7.38248833        3
H        5.17116038      -3.07702872       6.72656782        3
20
Properties=species:S:1:pos:R:3:fragment_id:I:1 config_id=nextgen_prospective__nextgen_prospective_021__cluster_3water__cooperative molecule_id=nextgen_prospective_021 smiles=NCCS split=new_prospective chemical_role=sulfur category=cluster_3water motif=cooperative regime=cooperative conformer_index=0 n_solute_atoms=11 n_waters=3 pbc="F F F"
N       -0.89770422       0.70009988      -0.75449991        0
C       -0.71530806      -0.30287238       0.29753946        0
C        0.73415939      -0.78459489       0.43148906        0
S        1.88563198       0.56916714       0.83054684        0
H       -0.39781929       1.54850370      -0.48495187        0
H       -1.88218445       0.96430470      -0.79450225        0
H       -1.06837040       0.10570969       1.25167605        0
H       -1.34979010      -1.16538089       0.06519170        0
H        1.06789281      -1.25997721      -0.49688802        0
H        0.79692146      -1.53063573       1.23010736        0
H        1.82657089       1.15567597      -0.37459972        0
O        3.99047282       1.35801278       2.04287462        1
H        3.74141309       1.52327057       1.13353917        1
H        3.27380000       0.83082078       2.39597590        1
O        6.07037096       2.67388054       3.10579691        2
H        5.98736602       2.32982414       2.21643353        2
H        5.24430052       2.44280157       3.53058153        2
O        8.37717802       3.92669562       4.13439282        3
H        8.23416845       3.60119394       3.24566971        3
H        7.56145447       3.73151427       4.59562072        3
20
Properties=species:S:1:pos:R:3:fragment_id:I:1 config_id=nextgen_prospective__nextgen_prospective_021__cluster_3water__equilibrium molecule_id=nextgen_prospective_021 smiles=NCCS split=new_prospective chemical_role=sulfur category=cluster_3water motif=equilibrium regime=equilibrium conformer_index=0 n_solute_atoms=11 n_waters=3 pbc="F F F"
N       -0.89770422       0.70009988      -0.75449991        0
C       -0.71530806      -0.30287238       0.29753946        0
C        0.73415939      -0.78459489       0.43148906        0
S        1.88563198       0.56916714       0.83054684        0
H       -0.39781929       1.54850370      -0.48495187        0
H       -1.88218445       0.96430470      -0.79450225        0
H       -1.06837040       0.10570969       1.25167605        0
H       -1.34979010      -1.16538089       0.06519170        0
H        1.06789281      -1.25997721      -0.49688802        0
H        0.79692146      -1.53063573       1.23010736        0
H        1.82657089       1.15567597      -0.37459972        0
O       -3.17532685       2.34788646      -3.39858344        1
H       -3.28199224       3.16499840      -3.88559720        1
H       -3.25335993       2.60426207      -2.47966330        1
O        4.32360541       2.03946697       0.99557199        2
H        4.01241905       1.17280193       0.73425495        2
H        3.62992922       2.63748980       0.71733849        2
O       -3.32611802      -1.28748528      -0.13118713        3
H       -3.75831071      -1.06518623      -0.95582308        3
H       -4.01045946      -1.70190428       0.39432740        3
20
Properties=species:S:1:pos:R:3:fragment_id:I:1 config_id=nextgen_prospective__nextgen_prospective_021__cluster_3water__orientation molecule_id=nextgen_prospective_021 smiles=NCCS split=new_prospective chemical_role=sulfur category=cluster_3water motif=orientation regime=orientation conformer_index=0 n_solute_atoms=11 n_waters=3 pbc="F F F"
N       -0.89770422       0.70009988      -0.75449991        0
C       -0.71530806      -0.30287238       0.29753946        0
C        0.73415939      -0.78459489       0.43148906        0
S        1.88563198       0.56916714       0.83054684        0
H       -0.39781929       1.54850370      -0.48495187        0
H       -1.88218445       0.96430470      -0.79450225        0
H       -1.06837040       0.10570969       1.25167605        0
H       -1.34979010      -1.16538089       0.06519170        0
H        1.06789281      -1.25997721      -0.49688802        0
H        0.79692146      -1.53063573       1.23010736        0
H        1.82657089       1.15567597      -0.37459972        0
O       -3.17532685       2.34788646      -3.39858344        1
H       -2.49526871       1.71643870      -3.16400616        1
H       -3.48007496       2.06338011      -4.26021942        1
O        4.32360541       2.03946697       0.99557199        2
H        4.87455493       2.74982235       1.32432981        2
H        3.44607854       2.41880326       0.94779725        2
O       -3.32611802      -1.28748528      -0.13118713        3
H       -2.85284272      -2.10803101      -0.26883536        3
H       -3.59816413      -1.31830523       0.78602216        3
17
Properties=species:S:1:pos:R:3:fragment_id:I:1 config_id=nextgen_prospective__nextgen_prospective_022__cluster_3water__compressed molecule_id=nextgen_prospective_022 smiles=NC(N)=S split=new_prospective chemical_role=sulfur category=cluster_3water motif=compressed regime=compressed conformer_index=0 n_solute_atoms=8 n_waters=3 pbc="F F F"
N        1.07701732      -0.20829921       0.13693314        0
C       -0.02043367       0.46648849      -0.25279778        0
N       -1.05457780      -0.30398228      -0.63821775        0
S       -0.09271507       2.11661725      -0.25771961        0
H        1.89067429       0.31332528       0.43908654        0
H        1.12841250      -1.21525280       0.14258146        0
H       -1.01772775      -1.31158844      -0.63785875        0
H       -1.91064982       0.14269171      -0.94325896        0
O        1.65140564       3.45186916      -1.09646760        1
H        2.01469887       2.67899108      -0.66413746        1
H        0.73222617       3.23210875      -1.24827770        1
O        2.96924369       5.91790310      -1.75843088        2
H        3.35017961       5.14211927      -1.34699545        2
H        2.05089018       5.68803223      -1.89991606        2
O        4.19769186       8.31623867      -2.58465427        3
H        4.58644779       7.60307257      -2.07820114        3
H        3.29821390       8.03230710      -2.74760861        3
17
Properties=species:S:1:pos:R:3:fragment_id:I:1 config_id=nextgen_prospective__nextgen_prospective_022__cluster_3water__cooperative molecule_id=nextgen_prospective_022 smiles=NC(N)=S split=new_prospective chemical_role=sulfur category=cluster_3water motif=cooperative regime=cooperative conformer_index=0 n_solute_atoms=8 n_waters=3 pbc="F F F"
N        1.07701732      -0.20829921       0.13693314        0
C       -0.02043367       0.46648849      -0.25279778        0
N       -1.05457780      -0.30398228      -0.63821775        0
S       -0.09271507       2.11661725      -0.25771961        0
H        1.89067429       0.31332528       0.43908654        0
H        1.12841250      -1.21525280       0.14258146        0
H       -1.01772775      -1.31158844      -0.63785875        0
H       -1.91064982       0.14269171      -0.94325896        0
O        3.51789392      -1.65930546       0.99953710        1
H        2.66592577      -1.63519082       1.43519819        1
H        3.40611576      -1.11051039       0.22328879        1
O        5.99444124      -2.59575524       1.66081667        2
H        5.20301568      -2.60120742       2.19919172        2
H        5.72250445      -2.18821688       0.83850608        2
O        8.43249530      -3.55729359       2.19605817        3
H        7.62639383      -3.69434073       2.69370295        3
H        8.17058902      -2.99903741       1.46394685        3
17
Properties=species:S:1:pos:R:3:fragment_id:I:1 config_id=nextgen_prospective__nextgen_prospective_022__cluster_3water__equilibrium molecule_id=nextgen_prospective_022 smiles=NC(N)=S split=new_prospective chemical_role=sulfur category=cluster_3water motif=equilibrium regime=equilibrium conformer_index=0 n_solute_atoms=8 n_waters=3 pbc="F F F"
N        1.07701732      -0.20829921       0.13693314        0
C       -0.02043367       0.46648849      -0.25279778        0
N       -1.05457780      -0.30398228      -0.63821775        0
S       -0.09271507       2.11661725      -0.25771961        0
H        1.89067429       0.31332528       0.43908654        0
H        1.12841250      -1.21525280       0.14258146        0
H       -1.01772775      -1.31158844      -0.63785875        0
H       -1.91064982       0.14269171      -0.94325896        0
O       -4.33097821      -0.93988186      -0.75657008        1
H       -4.97964068      -1.35614328      -1.32419254        1
H       -3.48923163      -1.26692673      -1.07395973        1
O       -2.29075834       4.24126008      -0.78660911        2
H       -1.83542225       4.90524577      -0.26889888        2
H       -1.59439164       3.78917961      -1.26297923        2
O       -3.25413235       0.26008442      -3.56280939        3
H       -3.16594115       0.98478922      -4.18188701        3
H       -3.60226957       0.66436493      -2.76808329        3
17
Properties=species:S:1:pos:R:3:fragment_id:I:1 config_id=nextgen_prospective__nextgen_prospective_022__cluster_3water__orientation molecule_id=nextgen_prospective_022 smiles=NC(N)=S split=new_prospective chemical_role=sulfur category=cluster_3water motif=orientation regime=orientation conformer_index=0 n_solute_atoms=8 n_waters=3 pbc="F F F"
N        1.07701732      -0.20829921       0.13693314        0
C       -0.02043367       0.46648849      -0.25279778        0
N       -1.05457780      -0.30398228      -0.63821775        0
S       -0.09271507       2.11661725      -0.25771961        0
H        1.89067429       0.31332528       0.43908654        0
H        1.12841250      -1.21525280       0.14258146        0
H       -1.01772775      -1.31158844      -0.63785875        0
H       -1.91064982       0.14269171      -0.94325896        0
O       -4.33097821      -0.93988186      -0.75657008        1
H       -4.83813771      -0.79604534      -1.55552698        1
H       -3.45779000      -1.18004123      -1.06656631        1
O       -2.29075834       4.24126008      -0.78660911        2
H       -2.12656560       3.30410688      -0.68164983        2
H       -1.85606962       4.64657558      -0.03627792        2
O       -3.25413235       0.26008442      -3.56280939        3
H       -3.81490309       0.91811148      -3.15199508        3
H       -3.13087961      -0.40612089      -2.88663553        3
26
Properties=species:S:1:pos:R:3:fragment_id:I:1 config_id=nextgen_prospective__nextgen_prospective_023__cluster_3water__compressed molecule_id=nextgen_prospective_023 smiles=O=S1(=O)CCNCC1 split=new_prospective chemical_role=sulfur category=cluster_3water motif=compressed regime=compressed conformer_index=0 n_solute_atoms=17 n_waters=3 pbc="F F F"
O        1.34116155      -2.47748953       0.33956488        0
S        0.77838648      -1.31850565      -0.32815887        0
O        0.88404774      -1.18002558      -1.76936679        0
C        1.46052533       0.13418898       0.42438883        0
C        0.64099891       1.35234676       0.04483663        0
N       -0.75567742       1.24237777       0.48426736        0
C       -1.47039632       0.17261256      -0.22331758        0
C       -0.93256267      -1.20293918       0.12046173        0
H        2.49397559       0.23050717       0.07871011        0
H        1.46731090      -0.02330233       1.50789978        0
H        1.08144408       2.23100540       0.52934611        0
H        0.68294019       1.53544501      -1.03572407        0
H       -1.22743781       2.13028051       0.29253194        0
H       -2.52495506       0.21594324       0.07131956        0
H       -1.43901077       0.34980983      -1.30521924        0
H       -1.01069045      -1.40787238       1.19318934        0
H       -1.47006027      -1.98438257      -0.42472972        0
O       -3.23450111      -3.26731275      -0.13394996        1
H       -3.30346671      -2.31291061      -0.10961616        1
H       -2.29612020      -3.44202507      -0.06219543        1
O       -4.90987836      -5.57071576      -0.49198762        2
H       -5.17531740      -4.65140242      -0.46675014        2
H       -3.96057536      -5.54981440      -0.37107947        2
O       -6.70240355      -7.65102817      -0.61519049        3
H       -6.89320685      -6.71309904      -0.60447234        3
H       -5.74748489      -7.70216439      -0.57338988        3
26
Properties=species:S:1:pos:R:3:fragment_id:I:1 config_id=nextgen_prospective__nextgen_prospective_023__cluster_3water__cooperative molecule_id=nextgen_prospective_023 smiles=O=S1(=O)CCNCC1 split=new_prospective chemical_role=sulfur category=cluster_3water motif=cooperative regime=cooperative conformer_index=0 n_solute_atoms=17 n_waters=3 pbc="F F F"
O        1.34116155      -2.47748953       0.33956488        0
S        0.77838648      -1.31850565      -0.32815887        0
O        0.88404774      -1.18002558      -1.76936679        0
C        1.46052533       0.13418898       0.42438883        0
C        0.64099891       1.35234676       0.04483663        0
N       -0.75567742       1.24237777       0.48426736        0
C       -1.47039632       0.17261256      -0.22331758        0
C       -0.93256267      -1.20293918       0.12046173        0
H        2.49397559       0.23050717       0.07871011        0
H        1.46731090      -0.02330233       1.50789978        0
H        1.08144408       2.23100540       0.52934611        0
H        0.68294019       1.53544501      -1.03572407        0
H       -1.22743781       2.13028051       0.29253194        0
H       -2.52495506       0.21594324       0.07131956        0
H       -1.43901077       0.34980983      -1.30521924        0
H       -1.01069045      -1.40787238       1.19318934        0
H       -1.47006027      -1.98438257      -0.42472972        0
O        2.44877581       3.44262904      -1.65006106        1
H        2.61012962       3.11046953      -0.76696036        1
H        1.63401541       3.01927264      -1.92055447        1
O        3.85949535       5.69259501      -2.52206291        2
H        4.17310889       4.98769154      -1.95550358        2
H        2.95448917       5.45428244      -2.72306732        2
O        5.34029512       7.80423679      -3.43998659        3
H        5.60725781       7.12824529      -2.81709153        3
H        4.43950832       7.57638598      -3.66998440        3
26
Properties=species:S:1:pos:R:3:fragment_id:I:1 config_id=nextgen_prospective__nextgen_prospective_023__cluster_3water__equilibrium molecule_id=nextgen_prospective_023 smiles=O=S1(=O)CCNCC1 split=new_prospective chemical_role=sulfur category=cluster_3water motif=equilibrium regime=equilibrium conformer_index=0 n_solute_atoms=17 n_waters=3 pbc="F F F"
O        1.34116155      -2.47748953       0.33956488        0
S        0.77838648      -1.31850565      -0.32815887        0
O        0.88404774      -1.18002558      -1.76936679        0
C        1.46052533       0.13418898       0.42438883        0
C        0.64099891       1.35234676       0.04483663        0
N       -0.75567742       1.24237777       0.48426736        0
C       -1.47039632       0.17261256      -0.22331758        0
C       -0.93256267      -1.20293918       0.12046173        0
H        2.49397559       0.23050717       0.07871011        0
H        1.46731090      -0.02330233       1.50789978        0
H        1.08144408       2.23100540       0.52934611        0
H        0.68294019       1.53544501      -1.03572407        0
H       -1.22743781       2.13028051       0.29253194        0
H       -2.52495506       0.21594324       0.07131956        0
H       -1.43901077       0.34980983      -1.30521924        0
H       -1.01069045      -1.40787238       1.19318934        0
H       -1.47006027      -1.98438257      -0.42472972        0
O        4.83079675       1.09943927       2.03825266        1
H        4.46632188       0.41879795       1.47246357        1
H        4.43448287       0.93750121       2.89437369        1
O       -3.35197802      -4.31988797      -0.59531865        2
H       -4.01207828      -4.91010870      -0.23180941        2
H       -2.58807688      -4.43721841      -0.03058822        2
O       -2.92244690       3.93477596       1.70704323        3
H       -2.48821712       4.05195075       0.86208974        3
H       -3.37923355       3.09731878       1.62802885        3
26
Properties=species:S:1:pos:R:3:fragment_id:I:1 config_id=nextgen_prospective__nextgen_prospective_023__cluster_3water__orientation molecule_id=nextgen_prospective_023 smiles=O=S1(=O)CCNCC1 split=new_prospective chemical_role=sulfur category=cluster_3water motif=orientation regime=orientation conformer_index=0 n_solute_atoms=17 n_waters=3 pbc="F F F"
O        1.34116155      -2.47748953       0.33956488        0
S        0.77838648      -1.31850565      -0.32815887        0
O        0.88404774      -1.18002558      -1.76936679        0
C        1.46052533       0.13418898       0.42438883        0
C        0.64099891       1.35234676       0.04483663        0
N       -0.75567742       1.24237777       0.48426736        0
C       -1.47039632       0.17261256      -0.22331758        0
C       -0.93256267      -1.20293918       0.12046173        0
H        2.49397559       0.23050717       0.07871011        0
H        1.46731090      -0.02330233       1.50789978        0
H        1.08144408       2.23100540       0.52934611        0
H        0.68294019       1.53544501      -1.03572407        0
H       -1.22743781       2.13028051       0.29253194        0
H       -2.52495506       0.21594324       0.07131956        0
H       -1.43901077       0.34980983      -1.30521924        0
H       -1.01069045      -1.40787238       1.19318934        0
H       -1.47006027      -1.98438257      -0.42472972        0
O        4.83079675       1.09943927       2.03825266        1
H        4.98021080       1.19875754       2.97848836        1
H        5.32189542       0.31345370       1.79891898        1
O       -3.35197802      -4.31988797      -0.59531865        2
H       -4.24657825      -4.65753935      -0.55157159        2
H       -2.93954430      -4.82323816      -1.29729361        2
O       -2.92244690       3.93477596       1.70704323        3
H       -3.57095108       3.23178546       1.74549477        3
H       -2.52490652       3.84743000       0.84069217        3
23
Properties=species:S:1:pos:R:3:fragment_id:I:1 config_id=nextgen_prospective__nextgen_prospective_024__cluster_3water__compressed molecule_id=nextgen_prospective_024 smiles=CCS(=O)(=O)C split=new_prospective chemical_role=sulfur category=cluster_3water motif=compressed regime=compressed conformer_index=0 n_solute_atoms=14 n_waters=3 pbc="F F F"
C       -1.99466653       0.25745259      -0.41622137        0
C       -0.56037650       0.63584753      -0.10679796        0
S        0.47385804      -0.80614669       0.08548160        0
O        0.56295069      -1.47391974      -1.19853628        0
O        0.04163688      -1.51835232       1.27228768        0
C        2.06732730      -0.10412367       0.43430874        0
H       -2.42382691      -0.35119811       0.38608353        0
H       -2.05881202      -0.32008742      -1.34393917        0
H       -2.60918489       1.15563964      -0.52972566        0
H       -0.50769420       1.20471891       0.82611734        0
H       -0.13954072       1.23609823      -0.91878169        0
H        1.99979545       0.48736106       1.34914200        0
H        2.37072442       0.51897689      -0.40891765        0
H        2.77780900      -0.92226688       0.56949889        0
O       -1.00689330       3.19560680      -0.04391182        1
H       -0.16077147       2.74902485      -0.07347925        1
H       -1.65171550       2.48819271      -0.04269485        1
O       -2.31890701       5.64723867       0.24938297        2
H       -1.38027992       5.49438447       0.14054081        2
H       -2.70769749       4.77266689       0.23531163        2
O       -3.10713769       8.26296169       0.45179212        3
H       -2.21577922       7.92454273       0.36703056        3
H       -3.66133382       7.48251618       0.44997402        3
23
Properties=species:S:1:pos:R:3:fragment_id:I:1 config_id=nextgen_prospective__nextgen_prospective_024__cluster_3water__cooperative molecule_id=nextgen_prospective_024 smiles=CCS(=O)(=O)C split=new_prospective chemical_role=sulfur category=cluster_3water motif=cooperative regime=cooperative conformer_index=0 n_solute_atoms=14 n_waters=3 pbc="F F F"
C       -1.99466653       0.25745259      -0.41622137        0
C       -0.56037650       0.63584753      -0.10679796        0
S        0.47385804      -0.80614669       0.08548160        0
O        0.56295069      -1.47391974      -1.19853628        0
O        0.04163688      -1.51835232       1.27228768        0
C        2.06732730      -0.10412367       0.43430874        0
H       -2.42382691      -0.35119811       0.38608353        0
H       -2.05881202      -0.32008742      -1.34393917        0
H       -2.60918489       1.15563964      -0.52972566        0
H       -0.50769420       1.20471891       0.82611734        0
H       -0.13954072       1.23609823      -0.91878169        0
H        1.99979545       0.48736106       1.34914200        0
H        2.37072442       0.51897689      -0.40891765        0
H        2.77780900      -0.92226688       0.56949889        0
O        0.74510794      -3.95079465       0.39303817        1
H       -0.05559956      -3.42679056       0.41582105        1
H        1.44559041      -3.31287230       0.25661519        1
O        1.13191950      -6.57890425       0.50502583        2
H        0.29846492      -6.10833397       0.51722891        2
H        1.79490053      -5.89122799       0.44346814        2
O        1.85621147      -9.40459677       0.73450738        3
H        0.98019972      -9.01999197       0.76474649        3
H        2.44217412      -8.65762812       0.61237036        3
23
Properties=species:S:1:pos:R:3:fragment_id:I:1 config_id=nextgen_prospective__nextgen_prospective_024__cluster_3water__equilibrium molecule_id=nextgen_prospective_024 smiles=CCS(=O)(=O)C split=new_prospective chemical_role=sulfur category=cluster_3water motif=equilibrium regime=equilibrium conformer_index=0 n_solute_atoms=14 n_waters=3 pbc="F F F"
C       -1.99466653       0.25745259      -0.41622137        0
C       -0.56037650       0.63584753      -0.10679796        0
S        0.47385804      -0.80614669       0.08548160        0
O        0.56295069      -1.47391974      -1.19853628        0
O        0.04163688      -1.51835232       1.27228768        0
C        2.06732730      -0.10412367       0.43430874        0
H       -2.42382691      -0.35119811       0.38608353        0
H       -2.05881202      -0.32008742      -1.34393917        0
H       -2.60918489       1.15563964      -0.52972566        0
H       -0.50769420       1.20471891       0.82611734        0
H       -0.13954072       1.23609823      -0.91878169        0
H        1.99979545       0.48736106       1.34914200        0
H        2.37072442       0.51897689      -0.40891765        0
H        2.77780900      -0.92226688       0.56949889        0
O        1.44542823      -2.80117289      -2.52428586        1
H        1.80132815      -3.64725108      -2.25277383        1
H        1.93970066      -2.57455029      -3.31204776        1
O        0.78808856      -2.80946135       2.61650854        2
H       -0.16461982      -2.89556127       2.65064639        2
H        1.05629128      -2.74570986       3.53315182        2
O       -5.47388708       1.44041191      -1.60036073        3
H       -5.71406754       1.78938658      -0.74201240        3
H       -4.57713757       1.74437501      -1.74064116        3
23
Properties=species:S:1:pos:R:3:fragment_id:I:1 config_id=nextgen_prospective__nextgen_prospective_024__cluster_3water__orientation molecule_id=nextgen_prospective_024 smiles=CCS(=O)(=O)C split=new_prospective chemical_role=sulfur category=cluster_3water motif=orientation regime=orientation conformer_index=0 n_solute_atoms=14 n_waters=3 pbc="F F F"
C       -1.99466653       0.25745259      -0.41622137        0
C       -0.56037650       0.63584753      -0.10679796        0
S        0.47385804      -0.80614669       0.08548160        0
O        0.56295069      -1.47391974      -1.19853628        0
O        0.04163688      -1.51835232       1.27228768        0
C        2.06732730      -0.10412367       0.43430874        0
H       -2.42382691      -0.35119811       0.38608353        0
H       -2.05881202      -0.32008742      -1.34393917        0
H       -2.60918489       1.15563964      -0.52972566        0
H       -0.50769420       1.20471891       0.82611734        0
H       -0.13954072       1.23609823      -0.91878169        0
H        1.99979545       0.48736106       1.34914200        0
H        2.37072442       0.51897689      -0.40891765        0
H        2.77780900      -0.92226688       0.56949889        0
O        1.44542823      -2.80117289      -2.52428586        1
H        2.23593484      -3.12555676      -2.95568621        1
H        1.36667285      -1.89370930      -2.81846142        1
O        0.78808856      -2.80946135       2.61650854        2
H        1.45049637      -3.49985416       2.64488995        2
H       -0.00096017      -3.21921725       2.97109853        2
O       -5.47388708       1.44041191      -1.60036073        3
H       -6.23805889       1.76452084      -2.07704373        3
H       -4.76619042       2.03522821      -1.84853575        3
