20
Properties=species:S:1:pos:R:3:fragment_id:I:1 config_id=dissociation__dev_cyclic_carbamate__single_water__3A molecule_id=dev_cyclic_carbamate regime=single_water n_solute_atoms=17 pbc="F F F"
O       -0.57471414       2.40023610       0.19585107        0
C       -0.04507130       1.30294096       0.02287873        0
N       -0.73175591       0.09916206       0.13913133        0
C       -2.15969347       0.09408374       0.39135598        0
C       -0.10344363      -1.15532992      -0.25924123        0
C        1.40594472      -1.13799148      -0.04539797        0
O        1.96788604      -0.04492637      -0.77051659        0
C        1.46553110       1.18739759      -0.26976822        0
H       -2.67738095      -0.16687586      -0.53629823        0
H       -2.38288731      -0.65268908       1.15858520        0
H       -2.51343206       1.07042029       0.73243729        0
H       -0.33216022      -1.29598800      -1.32184946        0
H       -0.55057164      -1.97529734       0.31223619        0
H        1.66404610      -1.04622209       1.01640490        0
H        1.85174090      -2.06253895      -0.42474706        0
H        1.99606398       1.42244096       0.66050978        0
H        1.71989778       1.96117740      -1.00157173        0
O       -6.09315591       0.52612201       0.81195564        1
H       -5.54377788       0.51512565       0.02818610        1
H       -6.07752170      -0.37702542       1.12867652        1
20
Properties=species:S:1:pos:R:3:fragment_id:I:1 config_id=dissociation__dev_cyclic_carbamate__single_water__4A molecule_id=dev_cyclic_carbamate regime=single_water n_solute_atoms=17 pbc="F F F"
O       -0.57471414       2.40023610       0.19585107        0
C       -0.04507130       1.30294096       0.02287873        0
N       -0.73175591       0.09916206       0.13913133        0
C       -2.15969347       0.09408374       0.39135598        0
C       -0.10344363      -1.15532992      -0.25924123        0
C        1.40594472      -1.13799148      -0.04539797        0
O        1.96788604      -0.04492637      -0.77051659        0
C        1.46553110       1.18739759      -0.26976822        0
H       -2.67738095      -0.16687586      -0.53629823        0
H       -2.38288731      -0.65268908       1.15858520        0
H       -2.51343206       1.07042029       0.73243729        0
H       -0.33216022      -1.29598800      -1.32184946        0
H       -0.55057164      -1.97529734       0.31223619        0
H        1.66404610      -1.04622209       1.01640490        0
H        1.85174090      -2.06253895      -0.42474706        0
H        1.99606398       1.42244096       0.66050978        0
H        1.71989778       1.96117740      -1.00157173        0
O       -7.08989717       0.61218701       0.94477839        1
H       -6.54051914       0.60119065       0.16100885        1
H       -7.07426296      -0.29096042       1.26149927        1
20
Properties=species:S:1:pos:R:3:fragment_id:I:1 config_id=dissociation__dev_cyclic_carbamate__single_water__5A molecule_id=dev_cyclic_carbamate regime=single_water n_solute_atoms=17 pbc="F F F"
O       -0.57471414       2.40023610       0.19585107        0
C       -0.04507130       1.30294096       0.02287873        0
N       -0.73175591       0.09916206       0.13913133        0
C       -2.15969347       0.09408374       0.39135598        0
C       -0.10344363      -1.15532992      -0.25924123        0
C        1.40594472      -1.13799148      -0.04539797        0
O        1.96788604      -0.04492637      -0.77051659        0
C        1.46553110       1.18739759      -0.26976822        0
H       -2.67738095      -0.16687586      -0.53629823        0
H       -2.38288731      -0.65268908       1.15858520        0
H       -2.51343206       1.07042029       0.73243729        0
H       -0.33216022      -1.29598800      -1.32184946        0
H       -0.55057164      -1.97529734       0.31223619        0
H        1.66404610      -1.04622209       1.01640490        0
H        1.85174090      -2.06253895      -0.42474706        0
H        1.99606398       1.42244096       0.66050978        0
H        1.71989778       1.96117740      -1.00157173        0
O       -8.08296114       0.69793450       1.07711111        1
H       -7.53358311       0.68693814       0.29334157        1
H       -8.06732693      -0.20521293       1.39383199        1
20
Properties=species:S:1:pos:R:3:fragment_id:I:1 config_id=dissociation__dev_cyclic_carbamate__single_water__6A molecule_id=dev_cyclic_carbamate regime=single_water n_solute_atoms=17 pbc="F F F"
O       -0.57471414       2.40023610       0.19585107        0
C       -0.04507130       1.30294096       0.02287873        0
N       -0.73175591       0.09916206       0.13913133        0
C       -2.15969347       0.09408374       0.39135598        0
C       -0.10344363      -1.15532992      -0.25924123        0
C        1.40594472      -1.13799148      -0.04539797        0
O        1.96788604      -0.04492637      -0.77051659        0
C        1.46553110       1.18739759      -0.26976822        0
H       -2.67738095      -0.16687586      -0.53629823        0
H       -2.38288731      -0.65268908       1.15858520        0
H       -2.51343206       1.07042029       0.73243729        0
H       -0.33216022      -1.29598800      -1.32184946        0
H       -0.55057164      -1.97529734       0.31223619        0
H        1.66404610      -1.04622209       1.01640490        0
H        1.85174090      -2.06253895      -0.42474706        0
H        1.99606398       1.42244096       0.66050978        0
H        1.71989778       1.96117740      -1.00157173        0
O       -9.07420252       0.78352462       1.20920096        1
H       -8.52482449       0.77252826       0.42543142        1
H       -9.05856831      -0.11962281       1.52592184        1
20
Properties=species:S:1:pos:R:3:fragment_id:I:1 config_id=dissociation__dev_cyclic_carbamate__single_water__8A molecule_id=dev_cyclic_carbamate regime=single_water n_solute_atoms=17 pbc="F F F"
O       -0.57471414       2.40023610       0.19585107        0
C       -0.04507130       1.30294096       0.02287873        0
N       -0.73175591       0.09916206       0.13913133        0
C       -2.15969347       0.09408374       0.39135598        0
C       -0.10344363      -1.15532992      -0.25924123        0
C        1.40594472      -1.13799148      -0.04539797        0
O        1.96788604      -0.04492637      -0.77051659        0
C        1.46553110       1.18739759      -0.26976822        0
H       -2.67738095      -0.16687586      -0.53629823        0
H       -2.38288731      -0.65268908       1.15858520        0
H       -2.51343206       1.07042029       0.73243729        0
H       -0.33216022      -1.29598800      -1.32184946        0
H       -0.55057164      -1.97529734       0.31223619        0
H        1.66404610      -1.04622209       1.01640490        0
H        1.85174090      -2.06253895      -0.42474706        0
H        1.99606398       1.42244096       0.66050978        0
H        1.71989778       1.96117740      -1.00157173        0
O      -11.06170229       0.95513804       1.47404920        1
H      -10.51232426       0.94414168       0.69027966        1
H      -11.04606808       0.05199061       1.79077008        1
20
Properties=species:S:1:pos:R:3:fragment_id:I:1 config_id=dissociation__dev_cyclic_carbamate__single_water__10A molecule_id=dev_cyclic_carbamate regime=single_water n_solute_atoms=17 pbc="F F F"
O       -0.57471414       2.40023610       0.19585107        0
C       -0.04507130       1.30294096       0.02287873        0
N       -0.73175591       0.09916206       0.13913133        0
C       -2.15969347       0.09408374       0.39135598        0
C       -0.10344363      -1.15532992      -0.25924123        0
C        1.40594472      -1.13799148      -0.04539797        0
O        1.96788604      -0.04492637      -0.77051659        0
C        1.46553110       1.18739759      -0.26976822        0
H       -2.67738095      -0.16687586      -0.53629823        0
H       -2.38288731      -0.65268908       1.15858520        0
H       -2.51343206       1.07042029       0.73243729        0
H       -0.33216022      -1.29598800      -1.32184946        0
H       -0.55057164      -1.97529734       0.31223619        0
H        1.66404610      -1.04622209       1.01640490        0
H        1.85174090      -2.06253895      -0.42474706        0
H        1.99606398       1.42244096       0.66050978        0
H        1.71989778       1.96117740      -1.00157173        0
O      -13.06019037       1.12770027       1.74036172        1
H      -12.51081234       1.11670391       0.95659218        1
H      -13.04455616       0.22455284       2.05708260        1
20
Properties=species:S:1:pos:R:3:fragment_id:I:1 config_id=dissociation__dev_cyclic_carbamate__single_water__15A molecule_id=dev_cyclic_carbamate regime=single_water n_solute_atoms=17 pbc="F F F"
O       -0.57471414       2.40023610       0.19585107        0
C       -0.04507130       1.30294096       0.02287873        0
N       -0.73175591       0.09916206       0.13913133        0
C       -2.15969347       0.09408374       0.39135598        0
C       -0.10344363      -1.15532992      -0.25924123        0
C        1.40594472      -1.13799148      -0.04539797        0
O        1.96788604      -0.04492637      -0.77051659        0
C        1.46553110       1.18739759      -0.26976822        0
H       -2.67738095      -0.16687586      -0.53629823        0
H       -2.38288731      -0.65268908       1.15858520        0
H       -2.51343206       1.07042029       0.73243729        0
H       -0.33216022      -1.29598800      -1.32184946        0
H       -0.55057164      -1.97529734       0.31223619        0
H        1.66404610      -1.04622209       1.01640490        0
H        1.85174090      -2.06253895      -0.42474706        0
H        1.99606398       1.42244096       0.66050978        0
H        1.71989778       1.96117740      -1.00157173        0
O      -18.02905718       1.55674397       2.40249798        1
H      -17.47967915       1.54574761       1.61872844        1
H      -18.01342297       0.65359654       2.71921886        1
20
Properties=species:S:1:pos:R:3:fragment_id:I:1 config_id=dissociation__dev_cyclic_carbamate__single_water__20A molecule_id=dev_cyclic_carbamate regime=single_water n_solute_atoms=17 pbc="F F F"
O       -0.57471414       2.40023610       0.19585107        0
C       -0.04507130       1.30294096       0.02287873        0
N       -0.73175591       0.09916206       0.13913133        0
C       -2.15969347       0.09408374       0.39135598        0
C       -0.10344363      -1.15532992      -0.25924123        0
C        1.40594472      -1.13799148      -0.04539797        0
O        1.96788604      -0.04492637      -0.77051659        0
C        1.46553110       1.18739759      -0.26976822        0
H       -2.67738095      -0.16687586      -0.53629823        0
H       -2.38288731      -0.65268908       1.15858520        0
H       -2.51343206       1.07042029       0.73243729        0
H       -0.33216022      -1.29598800      -1.32184946        0
H       -0.55057164      -1.97529734       0.31223619        0
H        1.66404610      -1.04622209       1.01640490        0
H        1.85174090      -2.06253895      -0.42474706        0
H        1.99606398       1.42244096       0.66050978        0
H        1.71989778       1.96117740      -1.00157173        0
O      -22.98248039       1.98445418       3.06257627        1
H      -22.43310236       1.97345782       2.27880673        1
H      -22.96684618       1.08130675       3.37929715        1
29
Properties=species:S:1:pos:R:3:fragment_id:I:1 config_id=dissociation__dev_cyclic_carbamate__whole_environment__3A molecule_id=dev_cyclic_carbamate regime=whole_environment n_solute_atoms=17 pbc="F F F"
O       -0.57471414       2.40023610       0.19585107        0
C       -0.04507130       1.30294096       0.02287873        0
N       -0.73175591       0.09916206       0.13913133        0
C       -2.15969347       0.09408374       0.39135598        0
C       -0.10344363      -1.15532992      -0.25924123        0
C        1.40594472      -1.13799148      -0.04539797        0
O        1.96788604      -0.04492637      -0.77051659        0
C        1.46553110       1.18739759      -0.26976822        0
H       -2.67738095      -0.16687586      -0.53629823        0
H       -2.38288731      -0.65268908       1.15858520        0
H       -2.51343206       1.07042029       0.73243729        0
H       -0.33216022      -1.29598800      -1.32184946        0
H       -0.55057164      -1.97529734       0.31223619        0
H        1.66404610      -1.04622209       1.01640490        0
H        1.85174090      -2.06253895      -0.42474706        0
H        1.99606398       1.42244096       0.66050978        0
H        1.71989778       1.96117740      -1.00157173        0
O      -16.04087813       1.38507189       2.13755921        1
H      -15.49150010       1.37407553       1.35378967        1
H      -16.02524392       0.48192446       2.45428009        1
O       -6.87270452       4.72261468       0.19483018        2
H       -6.97619849       4.00821753      -0.43378541        2
H       -7.76293558       5.04032604       0.34576059        2
O      -12.33688918       5.58974319       0.63729850        3
H      -12.63889459       5.52250126       1.54311476        3
H      -11.45612225       5.95843774       0.70472095        3
O       -6.39748081       0.98275916      -0.36550848        4
H       -6.71933980       1.47608178       0.38899230        4
H       -5.44988246       0.93942278      -0.23740244        4
29
Properties=species:S:1:pos:R:3:fragment_id:I:1 config_id=dissociation__dev_cyclic_carbamate__whole_environment__4A molecule_id=dev_cyclic_carbamate regime=whole_environment n_solute_atoms=17 pbc="F F F"
O       -0.57471414       2.40023610       0.19585107        0
C       -0.04507130       1.30294096       0.02287873        0
N       -0.73175591       0.09916206       0.13913133        0
C       -2.15969347       0.09408374       0.39135598        0
C       -0.10344363      -1.15532992      -0.25924123        0
C        1.40594472      -1.13799148      -0.04539797        0
O        1.96788604      -0.04492637      -0.77051659        0
C        1.46553110       1.18739759      -0.26976822        0
H       -2.67738095      -0.16687586      -0.53629823        0
H       -2.38288731      -0.65268908       1.15858520        0
H       -2.51343206       1.07042029       0.73243729        0
H       -0.33216022      -1.29598800      -1.32184946        0
H       -0.55057164      -1.97529734       0.31223619        0
H        1.66404610      -1.04622209       1.01640490        0
H        1.85174090      -2.06253895      -0.42474706        0
H        1.99606398       1.42244096       0.66050978        0
H        1.71989778       1.96117740      -1.00157173        0
O      -17.06104776       1.47315986       2.27350395        1
H      -16.51166973       1.46216350       1.48973441        1
H      -17.04541355       0.57001243       2.59022483        1
O       -7.89287415       4.81070265       0.33077492        2
H       -7.99636812       4.09630550      -0.29784067        2
H       -8.78310521       5.12841401       0.48170533        2
O      -13.35705881       5.67783116       0.77324324        3
H      -13.65906422       5.61058923       1.67905950        3
H      -12.47629188       6.04652571       0.84066569        3
O       -7.41765044       1.07084713      -0.22956374        4
H       -7.73950943       1.56416975       0.52493704        4
H       -6.47005209       1.02751075      -0.10145770        4
29
Properties=species:S:1:pos:R:3:fragment_id:I:1 config_id=dissociation__dev_cyclic_carbamate__whole_environment__5A molecule_id=dev_cyclic_carbamate regime=whole_environment n_solute_atoms=17 pbc="F F F"
O       -0.57471414       2.40023610       0.19585107        0
C       -0.04507130       1.30294096       0.02287873        0
N       -0.73175591       0.09916206       0.13913133        0
C       -2.15969347       0.09408374       0.39135598        0
C       -0.10344363      -1.15532992      -0.25924123        0
C        1.40594472      -1.13799148      -0.04539797        0
O        1.96788604      -0.04492637      -0.77051659        0
C        1.46553110       1.18739759      -0.26976822        0
H       -2.67738095      -0.16687586      -0.53629823        0
H       -2.38288731      -0.65268908       1.15858520        0
H       -2.51343206       1.07042029       0.73243729        0
H       -0.33216022      -1.29598800      -1.32184946        0
H       -0.55057164      -1.97529734       0.31223619        0
H        1.66404610      -1.04622209       1.01640490        0
H        1.85174090      -2.06253895      -0.42474706        0
H        1.99606398       1.42244096       0.66050978        0
H        1.71989778       1.96117740      -1.00157173        0
O      -18.06780065       1.56008933       2.40766082        1
H      -17.51842262       1.54909297       1.62389128        1
H      -18.05216644       0.65694190       2.72438170        1
O       -8.89962704       4.89763212       0.46493179        2
H       -9.00312101       4.18323497      -0.16368380        2
H       -9.78985810       5.21534348       0.61586220        2
O      -14.36381170       5.76476063       0.90740011        3
H      -14.66581711       5.69751870       1.81321637        3
H      -13.48304477       6.13345518       0.97482256        3
O       -8.42440333       1.15777660      -0.09540687        4
H       -8.74626232       1.65109922       0.65909391        4
H       -7.47680498       1.11444022       0.03269917        4
29
Properties=species:S:1:pos:R:3:fragment_id:I:1 config_id=dissociation__dev_cyclic_carbamate__whole_environment__6A molecule_id=dev_cyclic_carbamate regime=whole_environment n_solute_atoms=17 pbc="F F F"
O       -0.57471414       2.40023610       0.19585107        0
C       -0.04507130       1.30294096       0.02287873        0
N       -0.73175591       0.09916206       0.13913133        0
C       -2.15969347       0.09408374       0.39135598        0
C       -0.10344363      -1.15532992      -0.25924123        0
C        1.40594472      -1.13799148      -0.04539797        0
O        1.96788604      -0.04492637      -0.77051659        0
C        1.46553110       1.18739759      -0.26976822        0
H       -2.67738095      -0.16687586      -0.53629823        0
H       -2.38288731      -0.65268908       1.15858520        0
H       -2.51343206       1.07042029       0.73243729        0
H       -0.33216022      -1.29598800      -1.32184946        0
H       -0.55057164      -1.97529734       0.31223619        0
H        1.66404610      -1.04622209       1.01640490        0
H        1.85174090      -2.06253895      -0.42474706        0
H        1.99606398       1.42244096       0.66050978        0
H        1.71989778       1.96117740      -1.00157173        0
O      -19.07629453       1.64716914       2.54204968        1
H      -18.52691650       1.63617278       1.75828014        1
H      -19.06066032       0.74402171       2.85877056        1
O       -9.90812092       4.98471193       0.59932065        2
H      -10.01161489       4.27031478      -0.02929494        2
H      -10.79835198       5.30242329       0.75025106        2
O      -15.37230558       5.85184044       1.04178897        3
H      -15.67431099       5.78459851       1.94760523        3
H      -14.49153865       6.22053499       1.10921142        3
O       -9.43289721       1.24485641       0.03898199        4
H       -9.75475620       1.73817903       0.79348277        4
H       -8.48529886       1.20152003       0.16708803        4
29
Properties=species:S:1:pos:R:3:fragment_id:I:1 config_id=dissociation__dev_cyclic_carbamate__whole_environment__8A molecule_id=dev_cyclic_carbamate regime=whole_environment n_solute_atoms=17 pbc="F F F"
O       -0.57471414       2.40023610       0.19585107        0
C       -0.04507130       1.30294096       0.02287873        0
N       -0.73175591       0.09916206       0.13913133        0
C       -2.15969347       0.09408374       0.39135598        0
C       -0.10344363      -1.15532992      -0.25924123        0
C        1.40594472      -1.13799148      -0.04539797        0
O        1.96788604      -0.04492637      -0.77051659        0
C        1.46553110       1.18739759      -0.26976822        0
H       -2.67738095      -0.16687586      -0.53629823        0
H       -2.38288731      -0.65268908       1.15858520        0
H       -2.51343206       1.07042029       0.73243729        0
H       -0.33216022      -1.29598800      -1.32184946        0
H       -0.55057164      -1.97529734       0.31223619        0
H        1.66404610      -1.04622209       1.01640490        0
H        1.85174090      -2.06253895      -0.42474706        0
H        1.99606398       1.42244096       0.66050978        0
H        1.71989778       1.96117740      -1.00157173        0
O      -21.09309828       1.82131286       2.81080289        1
H      -20.54372025       1.81031650       2.02703335        1
H      -21.07746407       0.91816543       3.12752377        1
O      -11.92492467       5.15885565       0.86807386        2
H      -12.02841864       4.44445850       0.23945827        2
H      -12.81515573       5.47656701       1.01900427        2
O      -17.38910933       6.02598416       1.31054218        3
H      -17.69111474       5.95874223       2.21635844        3
H      -16.50834240       6.39467871       1.37796463        3
O      -11.44970096       1.41900013       0.30773520        4
H      -11.77155995       1.91232275       1.06223598        4
H      -10.50210261       1.37566375       0.43584124        4
29
Properties=species:S:1:pos:R:3:fragment_id:I:1 config_id=dissociation__dev_cyclic_carbamate__whole_environment__10A molecule_id=dev_cyclic_carbamate regime=whole_environment n_solute_atoms=17 pbc="F F F"
O       -0.57471414       2.40023610       0.19585107        0
C       -0.04507130       1.30294096       0.02287873        0
N       -0.73175591       0.09916206       0.13913133        0
C       -2.15969347       0.09408374       0.39135598        0
C       -0.10344363      -1.15532992      -0.25924123        0
C        1.40594472      -1.13799148      -0.04539797        0
O        1.96788604      -0.04492637      -0.77051659        0
C        1.46553110       1.18739759      -0.26976822        0
H       -2.67738095      -0.16687586      -0.53629823        0
H       -2.38288731      -0.65268908       1.15858520        0
H       -2.51343206       1.07042029       0.73243729        0
H       -0.33216022      -1.29598800      -1.32184946        0
H       -0.55057164      -1.97529734       0.31223619        0
H        1.66404610      -1.04622209       1.01640490        0
H        1.85174090      -2.06253895      -0.42474706        0
H        1.99606398       1.42244096       0.66050978        0
H        1.71989778       1.96117740      -1.00157173        0
O      -23.09295528       1.99399328       3.07729782        1
H      -22.54357725       1.98299692       2.29352828        1
H      -23.07732107       1.09084585       3.39401870        1
O      -13.92478167       5.33153607       1.13456879        2
H      -14.02827564       4.61713892       0.50595320        2
H      -14.81501273       5.64924743       1.28549920        2
O      -19.38896633       6.19866458       1.57703711        3
H      -19.69097174       6.13142265       2.48285337        3
H      -18.50819940       6.56735913       1.64445956        3
O      -13.44955796       1.59168055       0.57423013        4
H      -13.77141695       2.08500317       1.32873091        4
H      -12.50195961       1.54834417       0.70233617        4
29
Properties=species:S:1:pos:R:3:fragment_id:I:1 config_id=dissociation__dev_cyclic_carbamate__whole_environment__15A molecule_id=dev_cyclic_carbamate regime=whole_environment n_solute_atoms=17 pbc="F F F"
O       -0.57471414       2.40023610       0.19585107        0
C       -0.04507130       1.30294096       0.02287873        0
N       -0.73175591       0.09916206       0.13913133        0
C       -2.15969347       0.09408374       0.39135598        0
C       -0.10344363      -1.15532992      -0.25924123        0
C        1.40594472      -1.13799148      -0.04539797        0
O        1.96788604      -0.04492637      -0.77051659        0
C        1.46553110       1.18739759      -0.26976822        0
H       -2.67738095      -0.16687586      -0.53629823        0
H       -2.38288731      -0.65268908       1.15858520        0
H       -2.51343206       1.07042029       0.73243729        0
H       -0.33216022      -1.29598800      -1.32184946        0
H       -0.55057164      -1.97529734       0.31223619        0
H        1.66404610      -1.04622209       1.01640490        0
H        1.85174090      -2.06253895      -0.42474706        0
H        1.99606398       1.42244096       0.66050978        0
H        1.71989778       1.96117740      -1.00157173        0
O      -28.06361747       2.42319201       3.73967333        1
H      -27.51423944       2.41219565       2.95590379        1
H      -28.04798326       1.52004458       4.05639421        1
O      -18.89544386       5.76073480       1.79694430        2
H      -18.99893783       5.04633765       1.16832871        2
H      -19.78567492       6.07844616       1.94787471        2
O      -24.35962852       6.62786331       2.23941262        3
H      -24.66163393       6.56062138       3.14522888        3
H      -23.47886159       6.99655786       2.30683507        3
O      -18.42022015       2.02087928       1.23660564        4
H      -18.74207914       2.51420190       1.99110642        4
H      -17.47262180       1.97754290       1.36471168        4
29
Properties=species:S:1:pos:R:3:fragment_id:I:1 config_id=dissociation__dev_cyclic_carbamate__whole_environment__20A molecule_id=dev_cyclic_carbamate regime=whole_environment n_solute_atoms=17 pbc="F F F"
O       -0.57471414       2.40023610       0.19585107        0
C       -0.04507130       1.30294096       0.02287873        0
N       -0.73175591       0.09916206       0.13913133        0
C       -2.15969347       0.09408374       0.39135598        0
C       -0.10344363      -1.15532992      -0.25924123        0
C        1.40594472      -1.13799148      -0.04539797        0
O        1.96788604      -0.04492637      -0.77051659        0
C        1.46553110       1.18739759      -0.26976822        0
H       -2.67738095      -0.16687586      -0.53629823        0
H       -2.38288731      -0.65268908       1.15858520        0
H       -2.51343206       1.07042029       0.73243729        0
H       -0.33216022      -1.29598800      -1.32184946        0
H       -0.55057164      -1.97529734       0.31223619        0
H        1.66404610      -1.04622209       1.01640490        0
H        1.85174090      -2.06253895      -0.42474706        0
H        1.99606398       1.42244096       0.66050978        0
H        1.71989778       1.96117740      -1.00157173        0
O      -33.01792906       2.85097892       4.39987000        1
H      -32.46855103       2.83998256       3.61610046        1
H      -33.00229485       1.94783149       4.71659088        1
O      -23.84975545       6.18852171       2.45714097        2
H      -23.95324942       5.47412456       1.82852538        2
H      -24.73998651       6.50623307       2.60807138        2
O      -29.31394011       7.05565022       2.89960929        3
H      -29.61594552       6.98840829       3.80542555        3
H      -28.43317318       7.42434477       2.96703174        3
O      -23.37453174       2.44866619       1.89680231        4
H      -23.69639073       2.94198881       2.65130309        4
H      -22.42693339       2.40532981       2.02490835        4
20
Properties=species:S:1:pos:R:3:fragment_id:I:1 config_id=dissociation__dev_cyclic_carbamate__single_water__50A molecule_id=dev_cyclic_carbamate regime=single_water n_solute_atoms=17 pbc="F F F"
O       -0.57471414       2.40023610       0.19585107        0
C       -0.04507130       1.30294096       0.02287873        0
N       -0.73175591       0.09916206       0.13913133        0
C       -2.15969347       0.09408374       0.39135598        0
C       -0.10344363      -1.15532992      -0.25924123        0
C        1.40594472      -1.13799148      -0.04539797        0
O        1.96788604      -0.04492637      -0.77051659        0
C        1.46553110       1.18739759      -0.26976822        0
H       -2.67738095      -0.16687586      -0.53629823        0
H       -2.38288731      -0.65268908       1.15858520        0
H       -2.51343206       1.07042029       0.73243729        0
H       -0.33216022      -1.29598800      -1.32184946        0
H       -0.55057164      -1.97529734       0.31223619        0
H        1.66404610      -1.04622209       1.01640490        0
H        1.85174090      -2.06253895      -0.42474706        0
H        1.99606398       1.42244096       0.66050978        0
H        1.71989778       1.96117740      -1.00157173        0
O      -52.63872626       4.54516390       7.01447847        1
H      -52.08934823       4.53416754       6.23070893        1
H      -52.62309205       3.64201647       7.33119935        1
20
Properties=species:S:1:pos:R:3:fragment_id:I:1 config_id=dissociation__dev_cyclic_carbamate__single_water__100A molecule_id=dev_cyclic_carbamate regime=single_water n_solute_atoms=17 pbc="F F F"
O       -0.57471414       2.40023610       0.19585107        0
C       -0.04507130       1.30294096       0.02287873        0
N       -0.73175591       0.09916206       0.13913133        0
C       -2.15969347       0.09408374       0.39135598        0
C       -0.10344363      -1.15532992      -0.25924123        0
C        1.40594472      -1.13799148      -0.04539797        0
O        1.96788604      -0.04492637      -0.77051659        0
C        1.46553110       1.18739759      -0.26976822        0
H       -2.67738095      -0.16687586      -0.53629823        0
H       -2.38288731      -0.65268908       1.15858520        0
H       -2.51343206       1.07042029       0.73243729        0
H       -0.33216022      -1.29598800      -1.32184946        0
H       -0.55057164      -1.97529734       0.31223619        0
H        1.66404610      -1.04622209       1.01640490        0
H        1.85174090      -2.06253895      -0.42474706        0
H        1.99606398       1.42244096       0.66050978        0
H        1.71989778       1.96117740      -1.00157173        0
O     -102.02920499       8.80985335      13.59610524        1
H     -101.47982696       8.79885699      12.81233570        1
H     -102.01357078       7.90670592      13.91282612        1
29
Properties=species:S:1:pos:R:3:fragment_id:I:1 config_id=dissociation__dev_cyclic_carbamate__whole_environment__50A molecule_id=dev_cyclic_carbamate regime=whole_environment n_solute_atoms=17 pbc="F F F"
O       -0.57471414       2.40023610       0.19585107        0
C       -0.04507130       1.30294096       0.02287873        0
N       -0.73175591       0.09916206       0.13913133        0
C       -2.15969347       0.09408374       0.39135598        0
C       -0.10344363      -1.15532992      -0.25924123        0
C        1.40594472      -1.13799148      -0.04539797        0
O        1.96788604      -0.04492637      -0.77051659        0
C        1.46553110       1.18739759      -0.26976822        0
H       -2.67738095      -0.16687586      -0.53629823        0
H       -2.38288731      -0.65268908       1.15858520        0
H       -2.51343206       1.07042029       0.73243729        0
H       -0.33216022      -1.29598800      -1.32184946        0
H       -0.55057164      -1.97529734       0.31223619        0
H        1.66404610      -1.04622209       1.01640490        0
H        1.85174090      -2.06253895      -0.42474706        0
H        1.99606398       1.42244096       0.66050978        0
H        1.71989778       1.96117740      -1.00157173        0
O      -62.67576430       5.41182588       8.35198400        1
H      -62.12638627       5.40082952       7.56821446        1
H      -62.66013009       4.50867845       8.66870488        1
O      -53.50759069       8.74936867       6.40925497        2
H      -53.61108466       8.03497152       5.78063938        2
H      -54.39782175       9.06708003       6.56018538        2
O      -58.97177535       9.61649718       6.85172329        3
H      -59.27378076       9.54925525       7.75753955        3
H      -58.09100842       9.98519173       6.91914574        3
O      -53.03236698       5.00951315       5.84891631        4
H      -53.35422597       5.50283577       6.60341709        4
H      -52.08476863       4.96617677       5.97702235        4
29
Properties=species:S:1:pos:R:3:fragment_id:I:1 config_id=dissociation__dev_cyclic_carbamate__whole_environment__100A molecule_id=dev_cyclic_carbamate regime=whole_environment n_solute_atoms=17 pbc="F F F"
O       -0.57471414       2.40023610       0.19585107        0
C       -0.04507130       1.30294096       0.02287873        0
N       -0.73175591       0.09916206       0.13913133        0
C       -2.15969347       0.09408374       0.39135598        0
C       -0.10344363      -1.15532992      -0.25924123        0
C        1.40594472      -1.13799148      -0.04539797        0
O        1.96788604      -0.04492637      -0.77051659        0
C        1.46553110       1.18739759      -0.26976822        0
H       -2.67738095      -0.16687586      -0.53629823        0
H       -2.38288731      -0.65268908       1.15858520        0
H       -2.51343206       1.07042029       0.73243729        0
H       -0.33216022      -1.29598800      -1.32184946        0
H       -0.55057164      -1.97529734       0.31223619        0
H        1.66404610      -1.04622209       1.01640490        0
H        1.85174090      -2.06253895      -0.42474706        0
H        1.99606398       1.42244096       0.66050978        0
H        1.71989778       1.96117740      -1.00157173        0
O     -112.06677121       9.67656094      14.93368115        1
H     -111.51739318       9.66556458      14.14991161        1
H     -112.05113700       8.77341351      15.25040203        1
O     -102.89859760      13.01410373      12.99095212        2
H     -103.00209157      12.29970658      12.36233653        2
H     -103.78882866      13.33181509      13.14188253        2
O     -108.36278226      13.88123224      13.43342044        3
H     -108.66478767      13.81399031      14.33923670        3
H     -107.48201533      14.24992679      13.50084289        3
O     -102.42337389       9.27424821      12.43061346        4
H     -102.74523288       9.76757083      13.18511424        4
H     -101.47577554       9.23091183      12.55871950        4
